LAMMPS data file for SC lattice

125 atoms
19125 angles

1 atom types
6 angle types

0.0 5 xlo xhi
0.0 5 ylo yhi
0.0 5 zlo zhi

Masses

1 1.0

Atoms

1 1 1 0 0 0
2 1 1 0 0 1
3 1 1 0 0 2
4 1 1 0 0 3
5 1 1 0 0 4
6 1 1 0 1 0
7 1 1 0 1 1
8 1 1 0 1 2
9 1 1 0 1 3
10 1 1 0 1 4
11 1 1 0 2 0
12 1 1 0 2 1
13 1 1 0 2 2
14 1 1 0 2 3
15 1 1 0 2 4
16 1 1 0 3 0
17 1 1 0 3 1
18 1 1 0 3 2
19 1 1 0 3 3
20 1 1 0 3 4
21 1 1 0 4 0
22 1 1 0 4 1
23 1 1 0 4 2
24 1 1 0 4 3
25 1 1 0 4 4
26 1 1 1 0 0
27 1 1 1 0 1
28 1 1 1 0 2
29 1 1 1 0 3
30 1 1 1 0 4
31 1 1 1 1 0
32 1 1 1 1 1
33 1 1 1 1 2
34 1 1 1 1 3
35 1 1 1 1 4
36 1 1 1 2 0
37 1 1 1 2 1
38 1 1 1 2 2
39 1 1 1 2 3
40 1 1 1 2 4
41 1 1 1 3 0
42 1 1 1 3 1
43 1 1 1 3 2
44 1 1 1 3 3
45 1 1 1 3 4
46 1 1 1 4 0
47 1 1 1 4 1
48 1 1 1 4 2
49 1 1 1 4 3
50 1 1 1 4 4
51 1 1 2 0 0
52 1 1 2 0 1
53 1 1 2 0 2
54 1 1 2 0 3
55 1 1 2 0 4
56 1 1 2 1 0
57 1 1 2 1 1
58 1 1 2 1 2
59 1 1 2 1 3
60 1 1 2 1 4
61 1 1 2 2 0
62 1 1 2 2 1
63 1 1 2 2 2
64 1 1 2 2 3
65 1 1 2 2 4
66 1 1 2 3 0
67 1 1 2 3 1
68 1 1 2 3 2
69 1 1 2 3 3
70 1 1 2 3 4
71 1 1 2 4 0
72 1 1 2 4 1
73 1 1 2 4 2
74 1 1 2 4 3
75 1 1 2 4 4
76 1 1 3 0 0
77 1 1 3 0 1
78 1 1 3 0 2
79 1 1 3 0 3
80 1 1 3 0 4
81 1 1 3 1 0
82 1 1 3 1 1
83 1 1 3 1 2
84 1 1 3 1 3
85 1 1 3 1 4
86 1 1 3 2 0
87 1 1 3 2 1
88 1 1 3 2 2
89 1 1 3 2 3
90 1 1 3 2 4
91 1 1 3 3 0
92 1 1 3 3 1
93 1 1 3 3 2
94 1 1 3 3 3
95 1 1 3 3 4
96 1 1 3 4 0
97 1 1 3 4 1
98 1 1 3 4 2
99 1 1 3 4 3
100 1 1 3 4 4
101 1 1 4 0 0
102 1 1 4 0 1
103 1 1 4 0 2
104 1 1 4 0 3
105 1 1 4 0 4
106 1 1 4 1 0
107 1 1 4 1 1
108 1 1 4 1 2
109 1 1 4 1 3
110 1 1 4 1 4
111 1 1 4 2 0
112 1 1 4 2 1
113 1 1 4 2 2
114 1 1 4 2 3
115 1 1 4 2 4
116 1 1 4 3 0
117 1 1 4 3 1
118 1 1 4 3 2
119 1 1 4 3 3
120 1 1 4 3 4
121 1 1 4 4 0
122 1 1 4 4 1
123 1 1 4 4 2
124 1 1 4 4 3
125 1 1 4 4 4

Angles

1 3 101 1 21
2 3 101 1 5
3 3 101 1 2
4 3 101 1 6
5 6 101 1 26
6 1 101 1 121
7 1 101 1 105
8 1 101 1 102
9 1 101 1 106
10 3 101 1 25
11 3 101 1 22
12 3 101 1 10
13 3 101 1 7
14 5 101 1 46
15 5 101 1 30
16 5 101 1 27
17 5 101 1 31
18 3 21 1 5
19 3 21 1 2
20 6 21 1 6
21 3 21 1 26
22 1 21 1 121
23 3 21 1 105
24 3 21 1 102
25 5 21 1 106
26 1 21 1 25
27 1 21 1 22
28 5 21 1 10
29 5 21 1 7
30 1 21 1 46
31 3 21 1 30
32 3 21 1 27
33 5 21 1 31
34 6 5 1 2
35 3 5 1 6
36 3 5 1 26
37 3 5 1 121
38 1 5 1 105
39 5 5 1 102
40 3 5 1 106
41 1 5 1 25
42 5 5 1 22
43 1 5 1 10
44 5 5 1 7
45 3 5 1 46
46 1 5 1 30
47 5 5 1 27
48 3 5 1 31
49 3 2 1 6
50 3 2 1 26
51 3 2 1 121
52 5 2 1 105
53 1 2 1 102
54 3 2 1 106
55 5 2 1 25
56 1 2 1 22
57 5 2 1 10
58 1 2 1 7
59 3 2 1 46
60 5 2 1 30
61 1 2 1 27
62 3 2 1 31
63 3 6 1 26
64 5 6 1 121
65 3 6 1 105
66 3 6 1 102
67 1 6 1 106
68 5 6 1 25
69 5 6 1 22
70 1 6 1 10
71 1 6 1 7
72 5 6 1 46
73 3 6 1 30
74 3 6 1 27
75 1 6 1 31
76 5 26 1 121
77 5 26 1 105
78 5 26 1 102
79 5 26 1 106
80 3 26 1 25
81 3 26 1 22
82 3 26 1 10
83 3 26 1 7
84 1 26 1 46
85 1 26 1 30
86 1 26 1 27
87 1 26 1 31
88 2 121 1 105
89 2 121 1 102
90 3 121 1 106
91 2 121 1 25
92 2 121 1 22
93 4 121 1 10
94 4 121 1 7
95 3 121 1 46
96 4 121 1 30
97 4 121 1 27
98 6 121 1 31
99 3 105 1 102
100 2 105 1 106
101 2 105 1 25
102 4 105 1 22
103 2 105 1 10
104 4 105 1 7
105 4 105 1 46
106 3 105 1 30
107 6 105 1 27
108 4 105 1 31
109 2 102 1 106
110 4 102 1 25
111 2 102 1 22
112 4 102 1 10
113 2 102 1 7
114 4 102 1 46
115 6 102 1 30
116 3 102 1 27
117 4 102 1 31
118 4 106 1 25
119 4 106 1 22
120 2 106 1 10
121 2 106 1 7
122 6 106 1 46
123 4 106 1 30
124 4 106 1 27
125 3 106 1 31
126 3 25 1 22
127 3 25 1 10
128 6 25 1 7
129 2 25 1 46
130 2 25 1 30
131 4 25 1 27
132 4 25 1 31
133 6 22 1 10
134 3 22 1 7
135 2 22 1 46
136 4 22 1 30
137 2 22 1 27
138 4 22 1 31
139 3 10 1 7
140 4 10 1 46
141 2 10 1 30
142 4 10 1 27
143 2 10 1 31
144 4 7 1 46
145 4 7 1 30
146 2 7 1 27
147 2 7 1 31
148 2 46 1 30
149 2 46 1 27
150 3 46 1 31
151 3 30 1 27
152 2 30 1 31
153 2 27 1 31
154 3 102 2 22
155 3 102 2 1
156 3 102 2 3
157 3 102 2 7
158 6 102 2 27
159 1 102 2 122
160 1 102 2 101
161 1 102 2 103
162 1 102 2 107
163 3 102 2 21
164 3 102 2 23
165 3 102 2 6
166 3 102 2 8
167 5 102 2 47
168 5 102 2 26
169 5 102 2 28
170 5 102 2 32
171 3 22 2 1
172 3 22 2 3
173 6 22 2 7
174 3 22 2 27
175 1 22 2 122
176 3 22 2 101
177 3 22 2 103
178 5 22 2 107
179 1 22 2 21
180 1 22 2 23
181 5 22 2 6
182 5 22 2 8
183 1 22 2 47
184 3 22 2 26
185 3 22 2 28
186 5 22 2 32
187 6 1 2 3
188 3 1 2 7
189 3 1 2 27
190 3 1 2 122
191 1 1 2 101
192 5 1 2 103
193 3 1 2 107
194 1 1 2 21
195 5 1 2 23
196 1 1 2 6
197 5 1 2 8
198 3 1 2 47
199 1 1 2 26
200 5 1 2 28
201 3 1 2 32
202 3 3 2 7
203 3 3 2 27
204 3 3 2 122
205 5 3 2 101
206 1 3 2 103
207 3 3 2 107
208 5 3 2 21
209 1 3 2 23
210 5 3 2 6
211 1 3 2 8
212 3 3 2 47
213 5 3 2 26
214 1 3 2 28
215 3 3 2 32
216 3 7 2 27
217 5 7 2 122
218 3 7 2 101
219 3 7 2 103
220 1 7 2 107
221 5 7 2 21
222 5 7 2 23
223 1 7 2 6
224 1 7 2 8
225 5 7 2 47
226 3 7 2 26
227 3 7 2 28
228 1 7 2 32
229 5 27 2 122
230 5 27 2 101
231 5 27 2 103
232 5 27 2 107
233 3 27 2 21
234 3 27 2 23
235 3 27 2 6
236 3 27 2 8
237 1 27 2 47
238 1 27 2 26
239 1 27 2 28
240 1 27 2 32
241 2 122 2 101
242 2 122 2 103
243 3 122 2 107
244 2 122 2 21
245 2 122 2 23
246 4 122 2 6
247 4 122 2 8
248 3 122 2 47
249 4 122 2 26
250 4 122 2 28
251 6 122 2 32
252 3 101 2 103
253 2 101 2 107
254 2 101 2 21
255 4 101 2 23
256 2 101 2 6
257 4 101 2 8
258 4 101 2 47
259 3 101 2 26
260 6 101 2 28
261 4 101 2 32
262 2 103 2 107
263 4 103 2 21
264 2 103 2 23
265 4 103 2 6
266 2 103 2 8
267 4 103 2 47
268 6 103 2 26
269 3 103 2 28
270 4 103 2 32
271 4 107 2 21
272 4 107 2 23
273 2 107 2 6
274 2 107 2 8
275 6 107 2 47
276 4 107 2 26
277 4 107 2 28
278 3 107 2 32
279 3 21 2 23
280 3 21 2 6
281 6 21 2 8
282 2 21 2 47
283 2 21 2 26
284 4 21 2 28
285 4 21 2 32
286 6 23 2 6
287 3 23 2 8
288 2 23 2 47
289 4 23 2 26
290 2 23 2 28
291 4 23 2 32
292 3 6 2 8
293 4 6 2 47
294 2 6 2 26
295 4 6 2 28
296 2 6 2 32
297 4 8 2 47
298 4 8 2 26
299 2 8 2 28
300 2 8 2 32
301 2 47 2 26
302 2 47 2 28
303 3 47 2 32
304 3 26 2 28
305 2 26 2 32
306 2 28 2 32
307 3 103 3 23
308 3 103 3 2
309 3 103 3 4
310 3 103 3 8
311 6 103 3 28
312 1 103 3 123
313 1 103 3 102
314 1 103 3 104
315 1 103 3 108
316 3 103 3 22
317 3 103 3 24
318 3 103 3 7
319 3 103 3 9
320 5 103 3 48
321 5 103 3 27
322 5 103 3 29
323 5 103 3 33
324 3 23 3 2
325 3 23 3 4
326 6 23 3 8
327 3 23 3 28
328 1 23 3 123
329 3 23 3 102
330 3 23 3 104
331 5 23 3 108
332 1 23 3 22
333 1 23 3 24
334 5 23 3 7
335 5 23 3 9
336 1 23 3 48
337 3 23 3 27
338 3 23 3 29
339 5 23 3 33
340 6 2 3 4
341 3 2 3 8
342 3 2 3 28
343 3 2 3 123
344 1 2 3 102
345 5 2 3 104
346 3 2 3 108
347 1 2 3 22
348 5 2 3 24
349 1 2 3 7
350 5 2 3 9
351 3 2 3 48
352 1 2 3 27
353 5 2 3 29
354 3 2 3 33
355 3 4 3 8
356 3 4 3 28
357 3 4 3 123
358 5 4 3 102
359 1 4 3 104
360 3 4 3 108
361 5 4 3 22
362 1 4 3 24
363 5 4 3 7
364 1 4 3 9
365 3 4 3 48
366 5 4 3 27
367 1 4 3 29
368 3 4 3 33
369 3 8 3 28
370 5 8 3 123
371 3 8 3 102
372 3 8 3 104
373 1 8 3 108
374 5 8 3 22
375 5 8 3 24
376 1 8 3 7
377 1 8 3 9
378 5 8 3 48
379 3 8 3 27
380 3 8 3 29
381 1 8 3 33
382 5 28 3 123
383 5 28 3 102
384 5 28 3 104
385 5 28 3 108
386 3 28 3 22
387 3 28 3 24
388 3 28 3 7
389 3 28 3 9
390 1 28 3 48
391 1 28 3 27
392 1 28 3 29
393 1 28 3 33
394 2 123 3 102
395 2 123 3 104
396 3 123 3 108
397 2 123 3 22
398 2 123 3 24
399 4 123 3 7
400 4 123 3 9
401 3 123 3 48
402 4 123 3 27
403 4 123 3 29
404 6 123 3 33
405 3 102 3 104
406 2 102 3 108
407 2 102 3 22
408 4 102 3 24
409 2 102 3 7
410 4 102 3 9
411 4 102 3 48
412 3 102 3 27
413 6 102 3 29
414 4 102 3 33
415 2 104 3 108
416 4 104 3 22
417 2 104 3 24
418 4 104 3 7
419 2 104 3 9
420 4 104 3 48
421 6 104 3 27
422 3 104 3 29
423 4 104 3 33
424 4 108 3 22
425 4 108 3 24
426 2 108 3 7
427 2 108 3 9
428 6 108 3 48
429 4 108 3 27
430 4 108 3 29
431 3 108 3 33
432 3 22 3 24
433 3 22 3 7
434 6 22 3 9
435 2 22 3 48
436 2 22 3 27
437 4 22 3 29
438 4 22 3 33
439 6 24 3 7
440 3 24 3 9
441 2 24 3 48
442 4 24 3 27
443 2 24 3 29
444 4 24 3 33
445 3 7 3 9
446 4 7 3 48
447 2 7 3 27
448 4 7 3 29
449 2 7 3 33
450 4 9 3 48
451 4 9 3 27
452 2 9 3 29
453 2 9 3 33
454 2 48 3 27
455 2 48 3 29
456 3 48 3 33
457 3 27 3 29
458 2 27 3 33
459 2 29 3 33
460 3 104 4 24
461 3 104 4 3
462 3 104 4 5
463 3 104 4 9
464 6 104 4 29
465 1 104 4 124
466 1 104 4 103
467 1 104 4 105
468 1 104 4 109
469 3 104 4 23
470 3 104 4 25
471 3 104 4 8
472 3 104 4 10
473 5 104 4 49
474 5 104 4 28
475 5 104 4 30
476 5 104 4 34
477 3 24 4 3
478 3 24 4 5
479 6 24 4 9
480 3 24 4 29
481 1 24 4 124
482 3 24 4 103
483 3 24 4 105
484 5 24 4 109
485 1 24 4 23
486 1 24 4 25
487 5 24 4 8
488 5 24 4 10
489 1 24 4 49
490 3 24 4 28
491 3 24 4 30
492 5 24 4 34
493 6 3 4 5
494 3 3 4 9
495 3 3 4 29
496 3 3 4 124
497 1 3 4 103
498 5 3 4 105
499 3 3 4 109
500 1 3 4 23
501 5 3 4 25
502 1 3 4 8
503 5 3 4 10
504 3 3 4 49
505 1 3 4 28
506 5 3 4 30
507 3 3 4 34
508 3 5 4 9
509 3 5 4 29
510 3 5 4 124
511 5 5 4 103
512 1 5 4 105
513 3 5 4 109
514 5 5 4 23
515 1 5 4 25
516 5 5 4 8
517 1 5 4 10
518 3 5 4 49
519 5 5 4 28
520 1 5 4 30
521 3 5 4 34
522 3 9 4 29
523 5 9 4 124
524 3 9 4 103
525 3 9 4 105
526 1 9 4 109
527 5 9 4 23
528 5 9 4 25
529 1 9 4 8
530 1 9 4 10
531 5 9 4 49
532 3 9 4 28
533 3 9 4 30
534 1 9 4 34
535 5 29 4 124
536 5 29 4 103
537 5 29 4 105
538 5 29 4 109
539 3 29 4 23
540 3 29 4 25
541 3 29 4 8
542 3 29 4 10
543 1 29 4 49
544 1 29 4 28
545 1 29 4 30
546 1 29 4 34
547 2 124 4 103
548 2 124 4 105
549 3 124 4 109
550 2 124 4 23
551 2 124 4 25
552 4 124 4 8
553 4 124 4 10
554 3 124 4 49
555 4 124 4 28
556 4 124 4 30
557 6 124 4 34
558 3 103 4 105
559 2 103 4 109
560 2 103 4 23
561 4 103 4 25
562 2 103 4 8
563 4 103 4 10
564 4 103 4 49
565 3 103 4 28
566 6 103 4 30
567 4 103 4 34
568 2 105 4 109
569 4 105 4 23
570 2 105 4 25
571 4 105 4 8
572 2 105 4 10
573 4 105 4 49
574 6 105 4 28
575 3 105 4 30
576 4 105 4 34
577 4 109 4 23
578 4 109 4 25
579 2 109 4 8
580 2 109 4 10
581 6 109 4 49
582 4 109 4 28
583 4 109 4 30
584 3 109 4 34
585 3 23 4 25
586 3 23 4 8
587 6 23 4 10
588 2 23 4 49
589 2 23 4 28
590 4 23 4 30
591 4 23 4 34
592 6 25 4 8
593 3 25 4 10
594 2 25 4 49
595 4 25 4 28
596 2 25 4 30
597 4 25 4 34
598 3 8 4 10
599 4 8 4 49
600 2 8 4 28
601 4 8 4 30
602 2 8 4 34
603 4 10 4 49
604 4 10 4 28
605 2 10 4 30
606 2 10 4 34
607 2 49 4 28
608 2 49 4 30
609 3 49 4 34
610 3 28 4 30
611 2 28 4 34
612 2 30 4 34
613 3 105 5 25
614 3 105 5 4
615 3 105 5 1
616 3 105 5 10
617 6 105 5 30
618 1 105 5 125
619 1 105 5 104
620 1 105 5 101
621 1 105 5 110
622 3 105 5 24
623 3 105 5 21
624 3 105 5 9
625 3 105 5 6
626 5 105 5 50
627 5 105 5 29
628 5 105 5 26
629 5 105 5 35
630 3 25 5 4
631 3 25 5 1
632 6 25 5 10
633 3 25 5 30
634 1 25 5 125
635 3 25 5 104
636 3 25 5 101
637 5 25 5 110
638 1 25 5 24
639 1 25 5 21
640 5 25 5 9
641 5 25 5 6
642 1 25 5 50
643 3 25 5 29
644 3 25 5 26
645 5 25 5 35
646 6 4 5 1
647 3 4 5 10
648 3 4 5 30
649 3 4 5 125
650 1 4 5 104
651 5 4 5 101
652 3 4 5 110
653 1 4 5 24
654 5 4 5 21
655 1 4 5 9
656 5 4 5 6
657 3 4 5 50
658 1 4 5 29
659 5 4 5 26
660 3 4 5 35
661 3 1 5 10
662 3 1 5 30
663 3 1 5 125
664 5 1 5 104
665 1 1 5 101
666 3 1 5 110
667 5 1 5 24
668 1 1 5 21
669 5 1 5 9
670 1 1 5 6
671 3 1 5 50
672 5 1 5 29
673 1 1 5 26
674 3 1 5 35
675 3 10 5 30
676 5 10 5 125
677 3 10 5 104
678 3 10 5 101
679 1 10 5 110
680 5 10 5 24
681 5 10 5 21
682 1 10 5 9
683 1 10 5 6
684 5 10 5 50
685 3 10 5 29
686 3 10 5 26
687 1 10 5 35
688 5 30 5 125
689 5 30 5 104
690 5 30 5 101
691 5 30 5 110
692 3 30 5 24
693 3 30 5 21
694 3 30 5 9
695 3 30 5 6
696 1 30 5 50
697 1 30 5 29
698 1 30 5 26
699 1 30 5 35
700 2 125 5 104
701 2 125 5 101
702 3 125 5 110
703 2 125 5 24
704 2 125 5 21
705 4 125 5 9
706 4 125 5 6
707 3 125 5 50
708 4 125 5 29
709 4 125 5 26
710 6 125 5 35
711 3 104 5 101
712 2 104 5 110
713 2 104 5 24
714 4 104 5 21
715 2 104 5 9
716 4 104 5 6
717 4 104 5 50
718 3 104 5 29
719 6 104 5 26
720 4 104 5 35
721 2 101 5 110
722 4 101 5 24
723 2 101 5 21
724 4 101 5 9
725 2 101 5 6
726 4 101 5 50
727 6 101 5 29
728 3 101 5 26
729 4 101 5 35
730 4 110 5 24
731 4 110 5 21
732 2 110 5 9
733 2 110 5 6
734 6 110 5 50
735 4 110 5 29
736 4 110 5 26
737 3 110 5 35
738 3 24 5 21
739 3 24 5 9
740 6 24 5 6
741 2 24 5 50
742 2 24 5 29
743 4 24 5 26
744 4 24 5 35
745 6 21 5 9
746 3 21 5 6
747 2 21 5 50
748 4 21 5 29
749 2 21 5 26
750 4 21 5 35
751 3 9 5 6
752 4 9 5 50
753 2 9 5 29
754 4 9 5 26
755 2 9 5 35
756 4 6 5 50
757 4 6 5 29
758 2 6 5 26
759 2 6 5 35
760 2 50 5 29
761 2 50 5 26
762 3 50 5 35
763 3 29 5 26
764 2 29 5 35
765 2 26 5 35
766 3 106 6 1
767 3 106 6 10
768 3 106 6 7
769 3 106 6 11
770 6 106 6 31
771 1 106 6 101
772 1 106 6 110
773 1 106 6 107
774 1 106 6 111
775 3 106 6 5
776 3 106 6 2
777 3 106 6 15
778 3 106 6 12
779 5 106 6 26
780 5 106 6 35
781 5 106 6 32
782 5 106 6 36
783 3 1 6 10
784 3 1 6 7
785 6 1 6 11
786 3 1 6 31
787 1 1 6 101
788 3 1 6 110
789 3 1 6 107
790 5 1 6 111
791 1 1 6 5
792 1 1 6 2
793 5 1 6 15
794 5 1 6 12
795 1 1 6 26
796 3 1 6 35
797 3 1 6 32
798 5 1 6 36
799 6 10 6 7
800 3 10 6 11
801 3 10 6 31
802 3 10 6 101
803 1 10 6 110
804 5 10 6 107
805 3 10 6 111
806 1 10 6 5
807 5 10 6 2
808 1 10 6 15
809 5 10 6 12
810 3 10 6 26
811 1 10 6 35
812 5 10 6 32
813 3 10 6 36
814 3 7 6 11
815 3 7 6 31
816 3 7 6 101
817 5 7 6 110
818 1 7 6 107
819 3 7 6 111
820 5 7 6 5
821 1 7 6 2
822 5 7 6 15
823 1 7 6 12
824 3 7 6 26
825 5 7 6 35
826 1 7 6 32
827 3 7 6 36
828 3 11 6 31
829 5 11 6 101
830 3 11 6 110
831 3 11 6 107
832 1 11 6 111
833 5 11 6 5
834 5 11 6 2
835 1 11 6 15
836 1 11 6 12
837 5 11 6 26
838 3 11 6 35
839 3 11 6 32
840 1 11 6 36
841 5 31 6 101
842 5 31 6 110
843 5 31 6 107
844 5 31 6 111
845 3 31 6 5
846 3 31 6 2
847 3 31 6 15
848 3 31 6 12
849 1 31 6 26
850 1 31 6 35
851 1 31 6 32
852 1 31 6 36
853 2 101 6 110
854 2 101 6 107
855 3 101 6 111
856 2 101 6 5
857 2 101 6 2
858 4 101 6 15
859 4 101 6 12
860 3 101 6 26
861 4 101 6 35
862 4 101 6 32
863 6 101 6 36
864 3 110 6 107
865 2 110 6 111
866 2 110 6 5
867 4 110 6 2
868 2 110 6 15
869 4 110 6 12
870 4 110 6 26
871 3 110 6 35
872 6 110 6 32
873 4 110 6 36
874 2 107 6 111
875 4 107 6 5
876 2 107 6 2
877 4 107 6 15
878 2 107 6 12
879 4 107 6 26
880 6 107 6 35
881 3 107 6 32
882 4 107 6 36
883 4 111 6 5
884 4 111 6 2
885 2 111 6 15
886 2 111 6 12
887 6 111 6 26
888 4 111 6 35
889 4 111 6 32
890 3 111 6 36
891 3 5 6 2
892 3 5 6 15
893 6 5 6 12
894 2 5 6 26
895 2 5 6 35
896 4 5 6 32
897 4 5 6 36
898 6 2 6 15
899 3 2 6 12
900 2 2 6 26
901 4 2 6 35
902 2 2 6 32
903 4 2 6 36
904 3 15 6 12
905 4 15 6 26
906 2 15 6 35
907 4 15 6 32
908 2 15 6 36
909 4 12 6 26
910 4 12 6 35
911 2 12 6 32
912 2 12 6 36
913 2 26 6 35
914 2 26 6 32
915 3 26 6 36
916 3 35 6 32
917 2 35 6 36
918 2 32 6 36
919 3 107 7 2
920 3 107 7 6
921 3 107 7 8
922 3 107 7 12
923 6 107 7 32
924 1 107 7 102
925 1 107 7 106
926 1 107 7 108
927 1 107 7 112
928 3 107 7 1
929 3 107 7 3
930 3 107 7 11
931 3 107 7 13
932 5 107 7 27
933 5 107 7 31
934 5 107 7 33
935 5 107 7 37
936 3 2 7 6
937 3 2 7 8
938 6 2 7 12
939 3 2 7 32
940 1 2 7 102
941 3 2 7 106
942 3 2 7 108
943 5 2 7 112
944 1 2 7 1
945 1 2 7 3
946 5 2 7 11
947 5 2 7 13
948 1 2 7 27
949 3 2 7 31
950 3 2 7 33
951 5 2 7 37
952 6 6 7 8
953 3 6 7 12
954 3 6 7 32
955 3 6 7 102
956 1 6 7 106
957 5 6 7 108
958 3 6 7 112
959 1 6 7 1
960 5 6 7 3
961 1 6 7 11
962 5 6 7 13
963 3 6 7 27
964 1 6 7 31
965 5 6 7 33
966 3 6 7 37
967 3 8 7 12
968 3 8 7 32
969 3 8 7 102
970 5 8 7 106
971 1 8 7 108
972 3 8 7 112
973 5 8 7 1
974 1 8 7 3
975 5 8 7 11
976 1 8 7 13
977 3 8 7 27
978 5 8 7 31
979 1 8 7 33
980 3 8 7 37
981 3 12 7 32
982 5 12 7 102
983 3 12 7 106
984 3 12 7 108
985 1 12 7 112
986 5 12 7 1
987 5 12 7 3
988 1 12 7 11
989 1 12 7 13
990 5 12 7 27
991 3 12 7 31
992 3 12 7 33
993 1 12 7 37
994 5 32 7 102
995 5 32 7 106
996 5 32 7 108
997 5 32 7 112
998 3 32 7 1
999 3 32 7 3
1000 3 32 7 11
1001 3 32 7 13
1002 1 32 7 27
1003 1 32 7 31
1004 1 32 7 33
1005 1 32 7 37
1006 2 102 7 106
1007 2 102 7 108
1008 3 102 7 112
1009 2 102 7 1
1010 2 102 7 3
1011 4 102 7 11
1012 4 102 7 13
1013 3 102 7 27
1014 4 102 7 31
1015 4 102 7 33
1016 6 102 7 37
1017 3 106 7 108
1018 2 106 7 112
1019 2 106 7 1
1020 4 106 7 3
1021 2 106 7 11
1022 4 106 7 13
1023 4 106 7 27
1024 3 106 7 31
1025 6 106 7 33
1026 4 106 7 37
1027 2 108 7 112
1028 4 108 7 1
1029 2 108 7 3
1030 4 108 7 11
1031 2 108 7 13
1032 4 108 7 27
1033 6 108 7 31
1034 3 108 7 33
1035 4 108 7 37
1036 4 112 7 1
1037 4 112 7 3
1038 2 112 7 11
1039 2 112 7 13
1040 6 112 7 27
1041 4 112 7 31
1042 4 112 7 33
1043 3 112 7 37
1044 3 1 7 3
1045 3 1 7 11
1046 6 1 7 13
1047 2 1 7 27
1048 2 1 7 31
1049 4 1 7 33
1050 4 1 7 37
1051 6 3 7 11
1052 3 3 7 13
1053 2 3 7 27
1054 4 3 7 31
1055 2 3 7 33
1056 4 3 7 37
1057 3 11 7 13
1058 4 11 7 27
1059 2 11 7 31
1060 4 11 7 33
1061 2 11 7 37
1062 4 13 7 27
1063 4 13 7 31
1064 2 13 7 33
1065 2 13 7 37
1066 2 27 7 31
1067 2 27 7 33
1068 3 27 7 37
1069 3 31 7 33
1070 2 31 7 37
1071 2 33 7 37
1072 3 108 8 3
1073 3 108 8 7
1074 3 108 8 9
1075 3 108 8 13
1076 6 108 8 33
1077 1 108 8 103
1078 1 108 8 107
1079 1 108 8 109
1080 1 108 8 113
1081 3 108 8 2
1082 3 108 8 4
1083 3 108 8 12
1084 3 108 8 14
1085 5 108 8 28
1086 5 108 8 32
1087 5 108 8 34
1088 5 108 8 38
1089 3 3 8 7
1090 3 3 8 9
1091 6 3 8 13
1092 3 3 8 33
1093 1 3 8 103
1094 3 3 8 107
1095 3 3 8 109
1096 5 3 8 113
1097 1 3 8 2
1098 1 3 8 4
1099 5 3 8 12
1100 5 3 8 14
1101 1 3 8 28
1102 3 3 8 32
1103 3 3 8 34
1104 5 3 8 38
1105 6 7 8 9
1106 3 7 8 13
1107 3 7 8 33
1108 3 7 8 103
1109 1 7 8 107
1110 5 7 8 109
1111 3 7 8 113
1112 1 7 8 2
1113 5 7 8 4
1114 1 7 8 12
1115 5 7 8 14
1116 3 7 8 28
1117 1 7 8 32
1118 5 7 8 34
1119 3 7 8 38
1120 3 9 8 13
1121 3 9 8 33
1122 3 9 8 103
1123 5 9 8 107
1124 1 9 8 109
1125 3 9 8 113
1126 5 9 8 2
1127 1 9 8 4
1128 5 9 8 12
1129 1 9 8 14
1130 3 9 8 28
1131 5 9 8 32
1132 1 9 8 34
1133 3 9 8 38
1134 3 13 8 33
1135 5 13 8 103
1136 3 13 8 107
1137 3 13 8 109
1138 1 13 8 113
1139 5 13 8 2
1140 5 13 8 4
1141 1 13 8 12
1142 1 13 8 14
1143 5 13 8 28
1144 3 13 8 32
1145 3 13 8 34
1146 1 13 8 38
1147 5 33 8 103
1148 5 33 8 107
1149 5 33 8 109
1150 5 33 8 113
1151 3 33 8 2
1152 3 33 8 4
1153 3 33 8 12
1154 3 33 8 14
1155 1 33 8 28
1156 1 33 8 32
1157 1 33 8 34
1158 1 33 8 38
1159 2 103 8 107
1160 2 103 8 109
1161 3 103 8 113
1162 2 103 8 2
1163 2 103 8 4
1164 4 103 8 12
1165 4 103 8 14
1166 3 103 8 28
1167 4 103 8 32
1168 4 103 8 34
1169 6 103 8 38
1170 3 107 8 109
1171 2 107 8 113
1172 2 107 8 2
1173 4 107 8 4
1174 2 107 8 12
1175 4 107 8 14
1176 4 107 8 28
1177 3 107 8 32
1178 6 107 8 34
1179 4 107 8 38
1180 2 109 8 113
1181 4 109 8 2
1182 2 109 8 4
1183 4 109 8 12
1184 2 109 8 14
1185 4 109 8 28
1186 6 109 8 32
1187 3 109 8 34
1188 4 109 8 38
1189 4 113 8 2
1190 4 113 8 4
1191 2 113 8 12
1192 2 113 8 14
1193 6 113 8 28
1194 4 113 8 32
1195 4 113 8 34
1196 3 113 8 38
1197 3 2 8 4
1198 3 2 8 12
1199 6 2 8 14
1200 2 2 8 28
1201 2 2 8 32
1202 4 2 8 34
1203 4 2 8 38
1204 6 4 8 12
1205 3 4 8 14
1206 2 4 8 28
1207 4 4 8 32
1208 2 4 8 34
1209 4 4 8 38
1210 3 12 8 14
1211 4 12 8 28
1212 2 12 8 32
1213 4 12 8 34
1214 2 12 8 38
1215 4 14 8 28
1216 4 14 8 32
1217 2 14 8 34
1218 2 14 8 38
1219 2 28 8 32
1220 2 28 8 34
1221 3 28 8 38
1222 3 32 8 34
1223 2 32 8 38
1224 2 34 8 38
1225 3 109 9 4
1226 3 109 9 8
1227 3 109 9 10
1228 3 109 9 14
1229 6 109 9 34
1230 1 109 9 104
1231 1 109 9 108
1232 1 109 9 110
1233 1 109 9 114
1234 3 109 9 3
1235 3 109 9 5
1236 3 109 9 13
1237 3 109 9 15
1238 5 109 9 29
1239 5 109 9 33
1240 5 109 9 35
1241 5 109 9 39
1242 3 4 9 8
1243 3 4 9 10
1244 6 4 9 14
1245 3 4 9 34
1246 1 4 9 104
1247 3 4 9 108
1248 3 4 9 110
1249 5 4 9 114
1250 1 4 9 3
1251 1 4 9 5
1252 5 4 9 13
1253 5 4 9 15
1254 1 4 9 29
1255 3 4 9 33
1256 3 4 9 35
1257 5 4 9 39
1258 6 8 9 10
1259 3 8 9 14
1260 3 8 9 34
1261 3 8 9 104
1262 1 8 9 108
1263 5 8 9 110
1264 3 8 9 114
1265 1 8 9 3
1266 5 8 9 5
1267 1 8 9 13
1268 5 8 9 15
1269 3 8 9 29
1270 1 8 9 33
1271 5 8 9 35
1272 3 8 9 39
1273 3 10 9 14
1274 3 10 9 34
1275 3 10 9 104
1276 5 10 9 108
1277 1 10 9 110
1278 3 10 9 114
1279 5 10 9 3
1280 1 10 9 5
1281 5 10 9 13
1282 1 10 9 15
1283 3 10 9 29
1284 5 10 9 33
1285 1 10 9 35
1286 3 10 9 39
1287 3 14 9 34
1288 5 14 9 104
1289 3 14 9 108
1290 3 14 9 110
1291 1 14 9 114
1292 5 14 9 3
1293 5 14 9 5
1294 1 14 9 13
1295 1 14 9 15
1296 5 14 9 29
1297 3 14 9 33
1298 3 14 9 35
1299 1 14 9 39
1300 5 34 9 104
1301 5 34 9 108
1302 5 34 9 110
1303 5 34 9 114
1304 3 34 9 3
1305 3 34 9 5
1306 3 34 9 13
1307 3 34 9 15
1308 1 34 9 29
1309 1 34 9 33
1310 1 34 9 35
1311 1 34 9 39
1312 2 104 9 108
1313 2 104 9 110
1314 3 104 9 114
1315 2 104 9 3
1316 2 104 9 5
1317 4 104 9 13
1318 4 104 9 15
1319 3 104 9 29
1320 4 104 9 33
1321 4 104 9 35
1322 6 104 9 39
1323 3 108 9 110
1324 2 108 9 114
1325 2 108 9 3
1326 4 108 9 5
1327 2 108 9 13
1328 4 108 9 15
1329 4 108 9 29
1330 3 108 9 33
1331 6 108 9 35
1332 4 108 9 39
1333 2 110 9 114
1334 4 110 9 3
1335 2 110 9 5
1336 4 110 9 13
1337 2 110 9 15
1338 4 110 9 29
1339 6 110 9 33
1340 3 110 9 35
1341 4 110 9 39
1342 4 114 9 3
1343 4 114 9 5
1344 2 114 9 13
1345 2 114 9 15
1346 6 114 9 29
1347 4 114 9 33
1348 4 114 9 35
1349 3 114 9 39
1350 3 3 9 5
1351 3 3 9 13
1352 6 3 9 15
1353 2 3 9 29
1354 2 3 9 33
1355 4 3 9 35
1356 4 3 9 39
1357 6 5 9 13
1358 3 5 9 15
1359 2 5 9 29
1360 4 5 9 33
1361 2 5 9 35
1362 4 5 9 39
1363 3 13 9 15
1364 4 13 9 29
1365 2 13 9 33
1366 4 13 9 35
1367 2 13 9 39
1368 4 15 9 29
1369 4 15 9 33
1370 2 15 9 35
1371 2 15 9 39
1372 2 29 9 33
1373 2 29 9 35
1374 3 29 9 39
1375 3 33 9 35
1376 2 33 9 39
1377 2 35 9 39
1378 3 110 10 5
1379 3 110 10 9
1380 3 110 10 6
1381 3 110 10 15
1382 6 110 10 35
1383 1 110 10 105
1384 1 110 10 109
1385 1 110 10 106
1386 1 110 10 115
1387 3 110 10 4
1388 3 110 10 1
1389 3 110 10 14
1390 3 110 10 11
1391 5 110 10 30
1392 5 110 10 34
1393 5 110 10 31
1394 5 110 10 40
1395 3 5 10 9
1396 3 5 10 6
1397 6 5 10 15
1398 3 5 10 35
1399 1 5 10 105
1400 3 5 10 109
1401 3 5 10 106
1402 5 5 10 115
1403 1 5 10 4
1404 1 5 10 1
1405 5 5 10 14
1406 5 5 10 11
1407 1 5 10 30
1408 3 5 10 34
1409 3 5 10 31
1410 5 5 10 40
1411 6 9 10 6
1412 3 9 10 15
1413 3 9 10 35
1414 3 9 10 105
1415 1 9 10 109
1416 5 9 10 106
1417 3 9 10 115
1418 1 9 10 4
1419 5 9 10 1
1420 1 9 10 14
1421 5 9 10 11
1422 3 9 10 30
1423 1 9 10 34
1424 5 9 10 31
1425 3 9 10 40
1426 3 6 10 15
1427 3 6 10 35
1428 3 6 10 105
1429 5 6 10 109
1430 1 6 10 106
1431 3 6 10 115
1432 5 6 10 4
1433 1 6 10 1
1434 5 6 10 14
1435 1 6 10 11
1436 3 6 10 30
1437 5 6 10 34
1438 1 6 10 31
1439 3 6 10 40
1440 3 15 10 35
1441 5 15 10 105
1442 3 15 10 109
1443 3 15 10 106
1444 1 15 10 115
1445 5 15 10 4
1446 5 15 10 1
1447 1 15 10 14
1448 1 15 10 11
1449 5 15 10 30
1450 3 15 10 34
1451 3 15 10 31
1452 1 15 10 40
1453 5 35 10 105
1454 5 35 10 109
1455 5 35 10 106
1456 5 35 10 115
1457 3 35 10 4
1458 3 35 10 1
1459 3 35 10 14
1460 3 35 10 11
1461 1 35 10 30
1462 1 35 10 34
1463 1 35 10 31
1464 1 35 10 40
1465 2 105 10 109
1466 2 105 10 106
1467 3 105 10 115
1468 2 105 10 4
1469 2 105 10 1
1470 4 105 10 14
1471 4 105 10 11
1472 3 105 10 30
1473 4 105 10 34
1474 4 105 10 31
1475 6 105 10 40
1476 3 109 10 106
1477 2 109 10 115
1478 2 109 10 4
1479 4 109 10 1
1480 2 109 10 14
1481 4 109 10 11
1482 4 109 10 30
1483 3 109 10 34
1484 6 109 10 31
1485 4 109 10 40
1486 2 106 10 115
1487 4 106 10 4
1488 2 106 10 1
1489 4 106 10 14
1490 2 106 10 11
1491 4 106 10 30
1492 6 106 10 34
1493 3 106 10 31
1494 4 106 10 40
1495 4 115 10 4
1496 4 115 10 1
1497 2 115 10 14
1498 2 115 10 11
1499 6 115 10 30
1500 4 115 10 34
1501 4 115 10 31
1502 3 115 10 40
1503 3 4 10 1
1504 3 4 10 14
1505 6 4 10 11
1506 2 4 10 30
1507 2 4 10 34
1508 4 4 10 31
1509 4 4 10 40
1510 6 1 10 14
1511 3 1 10 11
1512 2 1 10 30
1513 4 1 10 34
1514 2 1 10 31
1515 4 1 10 40
1516 3 14 10 11
1517 4 14 10 30
1518 2 14 10 34
1519 4 14 10 31
1520 2 14 10 40
1521 4 11 10 30
1522 4 11 10 34
1523 2 11 10 31
1524 2 11 10 40
1525 2 30 10 34
1526 2 30 10 31
1527 3 30 10 40
1528 3 34 10 31
1529 2 34 10 40
1530 2 31 10 40
1531 3 111 11 6
1532 3 111 11 15
1533 3 111 11 12
1534 3 111 11 16
1535 6 111 11 36
1536 1 111 11 106
1537 1 111 11 115
1538 1 111 11 112
1539 1 111 11 116
1540 3 111 11 10
1541 3 111 11 7
1542 3 111 11 20
1543 3 111 11 17
1544 5 111 11 31
1545 5 111 11 40
1546 5 111 11 37
1547 5 111 11 41
1548 3 6 11 15
1549 3 6 11 12
1550 6 6 11 16
1551 3 6 11 36
1552 1 6 11 106
1553 3 6 11 115
1554 3 6 11 112
1555 5 6 11 116
1556 1 6 11 10
1557 1 6 11 7
1558 5 6 11 20
1559 5 6 11 17
1560 1 6 11 31
1561 3 6 11 40
1562 3 6 11 37
1563 5 6 11 41
1564 6 15 11 12
1565 3 15 11 16
1566 3 15 11 36
1567 3 15 11 106
1568 1 15 11 115
1569 5 15 11 112
1570 3 15 11 116
1571 1 15 11 10
1572 5 15 11 7
1573 1 15 11 20
1574 5 15 11 17
1575 3 15 11 31
1576 1 15 11 40
1577 5 15 11 37
1578 3 15 11 41
1579 3 12 11 16
1580 3 12 11 36
1581 3 12 11 106
1582 5 12 11 115
1583 1 12 11 112
1584 3 12 11 116
1585 5 12 11 10
1586 1 12 11 7
1587 5 12 11 20
1588 1 12 11 17
1589 3 12 11 31
1590 5 12 11 40
1591 1 12 11 37
1592 3 12 11 41
1593 3 16 11 36
1594 5 16 11 106
1595 3 16 11 115
1596 3 16 11 112
1597 1 16 11 116
1598 5 16 11 10
1599 5 16 11 7
1600 1 16 11 20
1601 1 16 11 17
1602 5 16 11 31
1603 3 16 11 40
1604 3 16 11 37
1605 1 16 11 41
1606 5 36 11 106
1607 5 36 11 115
1608 5 36 11 112
1609 5 36 11 116
1610 3 36 11 10
1611 3 36 11 7
1612 3 36 11 20
1613 3 36 11 17
1614 1 36 11 31
1615 1 36 11 40
1616 1 36 11 37
1617 1 36 11 41
1618 2 106 11 115
1619 2 106 11 112
1620 3 106 11 116
1621 2 106 11 10
1622 2 106 11 7
1623 4 106 11 20
1624 4 106 11 17
1625 3 106 11 31
1626 4 106 11 40
1627 4 106 11 37
1628 6 106 11 41
1629 3 115 11 112
1630 2 115 11 116
1631 2 115 11 10
1632 4 115 11 7
1633 2 115 11 20
1634 4 115 11 17
1635 4 115 11 31
1636 3 115 11 40
1637 6 115 11 37
1638 4 115 11 41
1639 2 112 11 116
1640 4 112 11 10
1641 2 112 11 7
1642 4 112 11 20
1643 2 112 11 17
1644 4 112 11 31
1645 6 112 11 40
1646 3 112 11 37
1647 4 112 11 41
1648 4 116 11 10
1649 4 116 11 7
1650 2 116 11 20
1651 2 116 11 17
1652 6 116 11 31
1653 4 116 11 40
1654 4 116 11 37
1655 3 116 11 41
1656 3 10 11 7
1657 3 10 11 20
1658 6 10 11 17
1659 2 10 11 31
1660 2 10 11 40
1661 4 10 11 37
1662 4 10 11 41
1663 6 7 11 20
1664 3 7 11 17
1665 2 7 11 31
1666 4 7 11 40
1667 2 7 11 37
1668 4 7 11 41
1669 3 20 11 17
1670 4 20 11 31
1671 2 20 11 40
1672 4 20 11 37
1673 2 20 11 41
1674 4 17 11 31
1675 4 17 11 40
1676 2 17 11 37
1677 2 17 11 41
1678 2 31 11 40
1679 2 31 11 37
1680 3 31 11 41
1681 3 40 11 37
1682 2 40 11 41
1683 2 37 11 41
1684 3 112 12 7
1685 3 112 12 11
1686 3 112 12 13
1687 3 112 12 17
1688 6 112 12 37
1689 1 112 12 107
1690 1 112 12 111
1691 1 112 12 113
1692 1 112 12 117
1693 3 112 12 6
1694 3 112 12 8
1695 3 112 12 16
1696 3 112 12 18
1697 5 112 12 32
1698 5 112 12 36
1699 5 112 12 38
1700 5 112 12 42
1701 3 7 12 11
1702 3 7 12 13
1703 6 7 12 17
1704 3 7 12 37
1705 1 7 12 107
1706 3 7 12 111
1707 3 7 12 113
1708 5 7 12 117
1709 1 7 12 6
1710 1 7 12 8
1711 5 7 12 16
1712 5 7 12 18
1713 1 7 12 32
1714 3 7 12 36
1715 3 7 12 38
1716 5 7 12 42
1717 6 11 12 13
1718 3 11 12 17
1719 3 11 12 37
1720 3 11 12 107
1721 1 11 12 111
1722 5 11 12 113
1723 3 11 12 117
1724 1 11 12 6
1725 5 11 12 8
1726 1 11 12 16
1727 5 11 12 18
1728 3 11 12 32
1729 1 11 12 36
1730 5 11 12 38
1731 3 11 12 42
1732 3 13 12 17
1733 3 13 12 37
1734 3 13 12 107
1735 5 13 12 111
1736 1 13 12 113
1737 3 13 12 117
1738 5 13 12 6
1739 1 13 12 8
1740 5 13 12 16
1741 1 13 12 18
1742 3 13 12 32
1743 5 13 12 36
1744 1 13 12 38
1745 3 13 12 42
1746 3 17 12 37
1747 5 17 12 107
1748 3 17 12 111
1749 3 17 12 113
1750 1 17 12 117
1751 5 17 12 6
1752 5 17 12 8
1753 1 17 12 16
1754 1 17 12 18
1755 5 17 12 32
1756 3 17 12 36
1757 3 17 12 38
1758 1 17 12 42
1759 5 37 12 107
1760 5 37 12 111
1761 5 37 12 113
1762 5 37 12 117
1763 3 37 12 6
1764 3 37 12 8
1765 3 37 12 16
1766 3 37 12 18
1767 1 37 12 32
1768 1 37 12 36
1769 1 37 12 38
1770 1 37 12 42
1771 2 107 12 111
1772 2 107 12 113
1773 3 107 12 117
1774 2 107 12 6
1775 2 107 12 8
1776 4 107 12 16
1777 4 107 12 18
1778 3 107 12 32
1779 4 107 12 36
1780 4 107 12 38
1781 6 107 12 42
1782 3 111 12 113
1783 2 111 12 117
1784 2 111 12 6
1785 4 111 12 8
1786 2 111 12 16
1787 4 111 12 18
1788 4 111 12 32
1789 3 111 12 36
1790 6 111 12 38
1791 4 111 12 42
1792 2 113 12 117
1793 4 113 12 6
1794 2 113 12 8
1795 4 113 12 16
1796 2 113 12 18
1797 4 113 12 32
1798 6 113 12 36
1799 3 113 12 38
1800 4 113 12 42
1801 4 117 12 6
1802 4 117 12 8
1803 2 117 12 16
1804 2 117 12 18
1805 6 117 12 32
1806 4 117 12 36
1807 4 117 12 38
1808 3 117 12 42
1809 3 6 12 8
1810 3 6 12 16
1811 6 6 12 18
1812 2 6 12 32
1813 2 6 12 36
1814 4 6 12 38
1815 4 6 12 42
1816 6 8 12 16
1817 3 8 12 18
1818 2 8 12 32
1819 4 8 12 36
1820 2 8 12 38
1821 4 8 12 42
1822 3 16 12 18
1823 4 16 12 32
1824 2 16 12 36
1825 4 16 12 38
1826 2 16 12 42
1827 4 18 12 32
1828 4 18 12 36
1829 2 18 12 38
1830 2 18 12 42
1831 2 32 12 36
1832 2 32 12 38
1833 3 32 12 42
1834 3 36 12 38
1835 2 36 12 42
1836 2 38 12 42
1837 3 113 13 8
1838 3 113 13 12
1839 3 113 13 14
1840 3 113 13 18
1841 6 113 13 38
1842 1 113 13 108
1843 1 113 13 112
1844 1 113 13 114
1845 1 113 13 118
1846 3 113 13 7
1847 3 113 13 9
1848 3 113 13 17
1849 3 113 13 19
1850 5 113 13 33
1851 5 113 13 37
1852 5 113 13 39
1853 5 113 13 43
1854 3 8 13 12
1855 3 8 13 14
1856 6 8 13 18
1857 3 8 13 38
1858 1 8 13 108
1859 3 8 13 112
1860 3 8 13 114
1861 5 8 13 118
1862 1 8 13 7
1863 1 8 13 9
1864 5 8 13 17
1865 5 8 13 19
1866 1 8 13 33
1867 3 8 13 37
1868 3 8 13 39
1869 5 8 13 43
1870 6 12 13 14
1871 3 12 13 18
1872 3 12 13 38
1873 3 12 13 108
1874 1 12 13 112
1875 5 12 13 114
1876 3 12 13 118
1877 1 12 13 7
1878 5 12 13 9
1879 1 12 13 17
1880 5 12 13 19
1881 3 12 13 33
1882 1 12 13 37
1883 5 12 13 39
1884 3 12 13 43
1885 3 14 13 18
1886 3 14 13 38
1887 3 14 13 108
1888 5 14 13 112
1889 1 14 13 114
1890 3 14 13 118
1891 5 14 13 7
1892 1 14 13 9
1893 5 14 13 17
1894 1 14 13 19
1895 3 14 13 33
1896 5 14 13 37
1897 1 14 13 39
1898 3 14 13 43
1899 3 18 13 38
1900 5 18 13 108
1901 3 18 13 112
1902 3 18 13 114
1903 1 18 13 118
1904 5 18 13 7
1905 5 18 13 9
1906 1 18 13 17
1907 1 18 13 19
1908 5 18 13 33
1909 3 18 13 37
1910 3 18 13 39
1911 1 18 13 43
1912 5 38 13 108
1913 5 38 13 112
1914 5 38 13 114
1915 5 38 13 118
1916 3 38 13 7
1917 3 38 13 9
1918 3 38 13 17
1919 3 38 13 19
1920 1 38 13 33
1921 1 38 13 37
1922 1 38 13 39
1923 1 38 13 43
1924 2 108 13 112
1925 2 108 13 114
1926 3 108 13 118
1927 2 108 13 7
1928 2 108 13 9
1929 4 108 13 17
1930 4 108 13 19
1931 3 108 13 33
1932 4 108 13 37
1933 4 108 13 39
1934 6 108 13 43
1935 3 112 13 114
1936 2 112 13 118
1937 2 112 13 7
1938 4 112 13 9
1939 2 112 13 17
1940 4 112 13 19
1941 4 112 13 33
1942 3 112 13 37
1943 6 112 13 39
1944 4 112 13 43
1945 2 114 13 118
1946 4 114 13 7
1947 2 114 13 9
1948 4 114 13 17
1949 2 114 13 19
1950 4 114 13 33
1951 6 114 13 37
1952 3 114 13 39
1953 4 114 13 43
1954 4 118 13 7
1955 4 118 13 9
1956 2 118 13 17
1957 2 118 13 19
1958 6 118 13 33
1959 4 118 13 37
1960 4 118 13 39
1961 3 118 13 43
1962 3 7 13 9
1963 3 7 13 17
1964 6 7 13 19
1965 2 7 13 33
1966 2 7 13 37
1967 4 7 13 39
1968 4 7 13 43
1969 6 9 13 17
1970 3 9 13 19
1971 2 9 13 33
1972 4 9 13 37
1973 2 9 13 39
1974 4 9 13 43
1975 3 17 13 19
1976 4 17 13 33
1977 2 17 13 37
1978 4 17 13 39
1979 2 17 13 43
1980 4 19 13 33
1981 4 19 13 37
1982 2 19 13 39
1983 2 19 13 43
1984 2 33 13 37
1985 2 33 13 39
1986 3 33 13 43
1987 3 37 13 39
1988 2 37 13 43
1989 2 39 13 43
1990 3 114 14 9
1991 3 114 14 13
1992 3 114 14 15
1993 3 114 14 19
1994 6 114 14 39
1995 1 114 14 109
1996 1 114 14 113
1997 1 114 14 115
1998 1 114 14 119
1999 3 114 14 8
2000 3 114 14 10
2001 3 114 14 18
2002 3 114 14 20
2003 5 114 14 34
2004 5 114 14 38
2005 5 114 14 40
2006 5 114 14 44
2007 3 9 14 13
2008 3 9 14 15
2009 6 9 14 19
2010 3 9 14 39
2011 1 9 14 109
2012 3 9 14 113
2013 3 9 14 115
2014 5 9 14 119
2015 1 9 14 8
2016 1 9 14 10
2017 5 9 14 18
2018 5 9 14 20
2019 1 9 14 34
2020 3 9 14 38
2021 3 9 14 40
2022 5 9 14 44
2023 6 13 14 15
2024 3 13 14 19
2025 3 13 14 39
2026 3 13 14 109
2027 1 13 14 113
2028 5 13 14 115
2029 3 13 14 119
2030 1 13 14 8
2031 5 13 14 10
2032 1 13 14 18
2033 5 13 14 20
2034 3 13 14 34
2035 1 13 14 38
2036 5 13 14 40
2037 3 13 14 44
2038 3 15 14 19
2039 3 15 14 39
2040 3 15 14 109
2041 5 15 14 113
2042 1 15 14 115
2043 3 15 14 119
2044 5 15 14 8
2045 1 15 14 10
2046 5 15 14 18
2047 1 15 14 20
2048 3 15 14 34
2049 5 15 14 38
2050 1 15 14 40
2051 3 15 14 44
2052 3 19 14 39
2053 5 19 14 109
2054 3 19 14 113
2055 3 19 14 115
2056 1 19 14 119
2057 5 19 14 8
2058 5 19 14 10
2059 1 19 14 18
2060 1 19 14 20
2061 5 19 14 34
2062 3 19 14 38
2063 3 19 14 40
2064 1 19 14 44
2065 5 39 14 109
2066 5 39 14 113
2067 5 39 14 115
2068 5 39 14 119
2069 3 39 14 8
2070 3 39 14 10
2071 3 39 14 18
2072 3 39 14 20
2073 1 39 14 34
2074 1 39 14 38
2075 1 39 14 40
2076 1 39 14 44
2077 2 109 14 113
2078 2 109 14 115
2079 3 109 14 119
2080 2 109 14 8
2081 2 109 14 10
2082 4 109 14 18
2083 4 109 14 20
2084 3 109 14 34
2085 4 109 14 38
2086 4 109 14 40
2087 6 109 14 44
2088 3 113 14 115
2089 2 113 14 119
2090 2 113 14 8
2091 4 113 14 10
2092 2 113 14 18
2093 4 113 14 20
2094 4 113 14 34
2095 3 113 14 38
2096 6 113 14 40
2097 4 113 14 44
2098 2 115 14 119
2099 4 115 14 8
2100 2 115 14 10
2101 4 115 14 18
2102 2 115 14 20
2103 4 115 14 34
2104 6 115 14 38
2105 3 115 14 40
2106 4 115 14 44
2107 4 119 14 8
2108 4 119 14 10
2109 2 119 14 18
2110 2 119 14 20
2111 6 119 14 34
2112 4 119 14 38
2113 4 119 14 40
2114 3 119 14 44
2115 3 8 14 10
2116 3 8 14 18
2117 6 8 14 20
2118 2 8 14 34
2119 2 8 14 38
2120 4 8 14 40
2121 4 8 14 44
2122 6 10 14 18
2123 3 10 14 20
2124 2 10 14 34
2125 4 10 14 38
2126 2 10 14 40
2127 4 10 14 44
2128 3 18 14 20
2129 4 18 14 34
2130 2 18 14 38
2131 4 18 14 40
2132 2 18 14 44
2133 4 20 14 34
2134 4 20 14 38
2135 2 20 14 40
2136 2 20 14 44
2137 2 34 14 38
2138 2 34 14 40
2139 3 34 14 44
2140 3 38 14 40
2141 2 38 14 44
2142 2 40 14 44
2143 3 115 15 10
2144 3 115 15 14
2145 3 115 15 11
2146 3 115 15 20
2147 6 115 15 40
2148 1 115 15 110
2149 1 115 15 114
2150 1 115 15 111
2151 1 115 15 120
2152 3 115 15 9
2153 3 115 15 6
2154 3 115 15 19
2155 3 115 15 16
2156 5 115 15 35
2157 5 115 15 39
2158 5 115 15 36
2159 5 115 15 45
2160 3 10 15 14
2161 3 10 15 11
2162 6 10 15 20
2163 3 10 15 40
2164 1 10 15 110
2165 3 10 15 114
2166 3 10 15 111
2167 5 10 15 120
2168 1 10 15 9
2169 1 10 15 6
2170 5 10 15 19
2171 5 10 15 16
2172 1 10 15 35
2173 3 10 15 39
2174 3 10 15 36
2175 5 10 15 45
2176 6 14 15 11
2177 3 14 15 20
2178 3 14 15 40
2179 3 14 15 110
2180 1 14 15 114
2181 5 14 15 111
2182 3 14 15 120
2183 1 14 15 9
2184 5 14 15 6
2185 1 14 15 19
2186 5 14 15 16
2187 3 14 15 35
2188 1 14 15 39
2189 5 14 15 36
2190 3 14 15 45
2191 3 11 15 20
2192 3 11 15 40
2193 3 11 15 110
2194 5 11 15 114
2195 1 11 15 111
2196 3 11 15 120
2197 5 11 15 9
2198 1 11 15 6
2199 5 11 15 19
2200 1 11 15 16
2201 3 11 15 35
2202 5 11 15 39
2203 1 11 15 36
2204 3 11 15 45
2205 3 20 15 40
2206 5 20 15 110
2207 3 20 15 114
2208 3 20 15 111
2209 1 20 15 120
2210 5 20 15 9
2211 5 20 15 6
2212 1 20 15 19
2213 1 20 15 16
2214 5 20 15 35
2215 3 20 15 39
2216 3 20 15 36
2217 1 20 15 45
2218 5 40 15 110
2219 5 40 15 114
2220 5 40 15 111
2221 5 40 15 120
2222 3 40 15 9
2223 3 40 15 6
2224 3 40 15 19
2225 3 40 15 16
2226 1 40 15 35
2227 1 40 15 39
2228 1 40 15 36
2229 1 40 15 45
2230 2 110 15 114
2231 2 110 15 111
2232 3 110 15 120
2233 2 110 15 9
2234 2 110 15 6
2235 4 110 15 19
2236 4 110 15 16
2237 3 110 15 35
2238 4 110 15 39
2239 4 110 15 36
2240 6 110 15 45
2241 3 114 15 111
2242 2 114 15 120
2243 2 114 15 9
2244 4 114 15 6
2245 2 114 15 19
2246 4 114 15 16
2247 4 114 15 35
2248 3 114 15 39
2249 6 114 15 36
2250 4 114 15 45
2251 2 111 15 120
2252 4 111 15 9
2253 2 111 15 6
2254 4 111 15 19
2255 2 111 15 16
2256 4 111 15 35
2257 6 111 15 39
2258 3 111 15 36
2259 4 111 15 45
2260 4 120 15 9
2261 4 120 15 6
2262 2 120 15 19
2263 2 120 15 16
2264 6 120 15 35
2265 4 120 15 39
2266 4 120 15 36
2267 3 120 15 45
2268 3 9 15 6
2269 3 9 15 19
2270 6 9 15 16
2271 2 9 15 35
2272 2 9 15 39
2273 4 9 15 36
2274 4 9 15 45
2275 6 6 15 19
2276 3 6 15 16
2277 2 6 15 35
2278 4 6 15 39
2279 2 6 15 36
2280 4 6 15 45
2281 3 19 15 16
2282 4 19 15 35
2283 2 19 15 39
2284 4 19 15 36
2285 2 19 15 45
2286 4 16 15 35
2287 4 16 15 39
2288 2 16 15 36
2289 2 16 15 45
2290 2 35 15 39
2291 2 35 15 36
2292 3 35 15 45
2293 3 39 15 36
2294 2 39 15 45
2295 2 36 15 45
2296 3 116 16 11
2297 3 116 16 20
2298 3 116 16 17
2299 3 116 16 21
2300 6 116 16 41
2301 1 116 16 111
2302 1 116 16 120
2303 1 116 16 117
2304 1 116 16 121
2305 3 116 16 15
2306 3 116 16 12
2307 3 116 16 25
2308 3 116 16 22
2309 5 116 16 36
2310 5 116 16 45
2311 5 116 16 42
2312 5 116 16 46
2313 3 11 16 20
2314 3 11 16 17
2315 6 11 16 21
2316 3 11 16 41
2317 1 11 16 111
2318 3 11 16 120
2319 3 11 16 117
2320 5 11 16 121
2321 1 11 16 15
2322 1 11 16 12
2323 5 11 16 25
2324 5 11 16 22
2325 1 11 16 36
2326 3 11 16 45
2327 3 11 16 42
2328 5 11 16 46
2329 6 20 16 17
2330 3 20 16 21
2331 3 20 16 41
2332 3 20 16 111
2333 1 20 16 120
2334 5 20 16 117
2335 3 20 16 121
2336 1 20 16 15
2337 5 20 16 12
2338 1 20 16 25
2339 5 20 16 22
2340 3 20 16 36
2341 1 20 16 45
2342 5 20 16 42
2343 3 20 16 46
2344 3 17 16 21
2345 3 17 16 41
2346 3 17 16 111
2347 5 17 16 120
2348 1 17 16 117
2349 3 17 16 121
2350 5 17 16 15
2351 1 17 16 12
2352 5 17 16 25
2353 1 17 16 22
2354 3 17 16 36
2355 5 17 16 45
2356 1 17 16 42
2357 3 17 16 46
2358 3 21 16 41
2359 5 21 16 111
2360 3 21 16 120
2361 3 21 16 117
2362 1 21 16 121
2363 5 21 16 15
2364 5 21 16 12
2365 1 21 16 25
2366 1 21 16 22
2367 5 21 16 36
2368 3 21 16 45
2369 3 21 16 42
2370 1 21 16 46
2371 5 41 16 111
2372 5 41 16 120
2373 5 41 16 117
2374 5 41 16 121
2375 3 41 16 15
2376 3 41 16 12
2377 3 41 16 25
2378 3 41 16 22
2379 1 41 16 36
2380 1 41 16 45
2381 1 41 16 42
2382 1 41 16 46
2383 2 111 16 120
2384 2 111 16 117
2385 3 111 16 121
2386 2 111 16 15
2387 2 111 16 12
2388 4 111 16 25
2389 4 111 16 22
2390 3 111 16 36
2391 4 111 16 45
2392 4 111 16 42
2393 6 111 16 46
2394 3 120 16 117
2395 2 120 16 121
2396 2 120 16 15
2397 4 120 16 12
2398 2 120 16 25
2399 4 120 16 22
2400 4 120 16 36
2401 3 120 16 45
2402 6 120 16 42
2403 4 120 16 46
2404 2 117 16 121
2405 4 117 16 15
2406 2 117 16 12
2407 4 117 16 25
2408 2 117 16 22
2409 4 117 16 36
2410 6 117 16 45
2411 3 117 16 42
2412 4 117 16 46
2413 4 121 16 15
2414 4 121 16 12
2415 2 121 16 25
2416 2 121 16 22
2417 6 121 16 36
2418 4 121 16 45
2419 4 121 16 42
2420 3 121 16 46
2421 3 15 16 12
2422 3 15 16 25
2423 6 15 16 22
2424 2 15 16 36
2425 2 15 16 45
2426 4 15 16 42
2427 4 15 16 46
2428 6 12 16 25
2429 3 12 16 22
2430 2 12 16 36
2431 4 12 16 45
2432 2 12 16 42
2433 4 12 16 46
2434 3 25 16 22
2435 4 25 16 36
2436 2 25 16 45
2437 4 25 16 42
2438 2 25 16 46
2439 4 22 16 36
2440 4 22 16 45
2441 2 22 16 42
2442 2 22 16 46
2443 2 36 16 45
2444 2 36 16 42
2445 3 36 16 46
2446 3 45 16 42
2447 2 45 16 46
2448 2 42 16 46
2449 3 117 17 12
2450 3 117 17 16
2451 3 117 17 18
2452 3 117 17 22
2453 6 117 17 42
2454 1 117 17 112
2455 1 117 17 116
2456 1 117 17 118
2457 1 117 17 122
2458 3 117 17 11
2459 3 117 17 13
2460 3 117 17 21
2461 3 117 17 23
2462 5 117 17 37
2463 5 117 17 41
2464 5 117 17 43
2465 5 117 17 47
2466 3 12 17 16
2467 3 12 17 18
2468 6 12 17 22
2469 3 12 17 42
2470 1 12 17 112
2471 3 12 17 116
2472 3 12 17 118
2473 5 12 17 122
2474 1 12 17 11
2475 1 12 17 13
2476 5 12 17 21
2477 5 12 17 23
2478 1 12 17 37
2479 3 12 17 41
2480 3 12 17 43
2481 5 12 17 47
2482 6 16 17 18
2483 3 16 17 22
2484 3 16 17 42
2485 3 16 17 112
2486 1 16 17 116
2487 5 16 17 118
2488 3 16 17 122
2489 1 16 17 11
2490 5 16 17 13
2491 1 16 17 21
2492 5 16 17 23
2493 3 16 17 37
2494 1 16 17 41
2495 5 16 17 43
2496 3 16 17 47
2497 3 18 17 22
2498 3 18 17 42
2499 3 18 17 112
2500 5 18 17 116
2501 1 18 17 118
2502 3 18 17 122
2503 5 18 17 11
2504 1 18 17 13
2505 5 18 17 21
2506 1 18 17 23
2507 3 18 17 37
2508 5 18 17 41
2509 1 18 17 43
2510 3 18 17 47
2511 3 22 17 42
2512 5 22 17 112
2513 3 22 17 116
2514 3 22 17 118
2515 1 22 17 122
2516 5 22 17 11
2517 5 22 17 13
2518 1 22 17 21
2519 1 22 17 23
2520 5 22 17 37
2521 3 22 17 41
2522 3 22 17 43
2523 1 22 17 47
2524 5 42 17 112
2525 5 42 17 116
2526 5 42 17 118
2527 5 42 17 122
2528 3 42 17 11
2529 3 42 17 13
2530 3 42 17 21
2531 3 42 17 23
2532 1 42 17 37
2533 1 42 17 41
2534 1 42 17 43
2535 1 42 17 47
2536 2 112 17 116
2537 2 112 17 118
2538 3 112 17 122
2539 2 112 17 11
2540 2 112 17 13
2541 4 112 17 21
2542 4 112 17 23
2543 3 112 17 37
2544 4 112 17 41
2545 4 112 17 43
2546 6 112 17 47
2547 3 116 17 118
2548 2 116 17 122
2549 2 116 17 11
2550 4 116 17 13
2551 2 116 17 21
2552 4 116 17 23
2553 4 116 17 37
2554 3 116 17 41
2555 6 116 17 43
2556 4 116 17 47
2557 2 118 17 122
2558 4 118 17 11
2559 2 118 17 13
2560 4 118 17 21
2561 2 118 17 23
2562 4 118 17 37
2563 6 118 17 41
2564 3 118 17 43
2565 4 118 17 47
2566 4 122 17 11
2567 4 122 17 13
2568 2 122 17 21
2569 2 122 17 23
2570 6 122 17 37
2571 4 122 17 41
2572 4 122 17 43
2573 3 122 17 47
2574 3 11 17 13
2575 3 11 17 21
2576 6 11 17 23
2577 2 11 17 37
2578 2 11 17 41
2579 4 11 17 43
2580 4 11 17 47
2581 6 13 17 21
2582 3 13 17 23
2583 2 13 17 37
2584 4 13 17 41
2585 2 13 17 43
2586 4 13 17 47
2587 3 21 17 23
2588 4 21 17 37
2589 2 21 17 41
2590 4 21 17 43
2591 2 21 17 47
2592 4 23 17 37
2593 4 23 17 41
2594 2 23 17 43
2595 2 23 17 47
2596 2 37 17 41
2597 2 37 17 43
2598 3 37 17 47
2599 3 41 17 43
2600 2 41 17 47
2601 2 43 17 47
2602 3 118 18 13
2603 3 118 18 17
2604 3 118 18 19
2605 3 118 18 23
2606 6 118 18 43
2607 1 118 18 113
2608 1 118 18 117
2609 1 118 18 119
2610 1 118 18 123
2611 3 118 18 12
2612 3 118 18 14
2613 3 118 18 22
2614 3 118 18 24
2615 5 118 18 38
2616 5 118 18 42
2617 5 118 18 44
2618 5 118 18 48
2619 3 13 18 17
2620 3 13 18 19
2621 6 13 18 23
2622 3 13 18 43
2623 1 13 18 113
2624 3 13 18 117
2625 3 13 18 119
2626 5 13 18 123
2627 1 13 18 12
2628 1 13 18 14
2629 5 13 18 22
2630 5 13 18 24
2631 1 13 18 38
2632 3 13 18 42
2633 3 13 18 44
2634 5 13 18 48
2635 6 17 18 19
2636 3 17 18 23
2637 3 17 18 43
2638 3 17 18 113
2639 1 17 18 117
2640 5 17 18 119
2641 3 17 18 123
2642 1 17 18 12
2643 5 17 18 14
2644 1 17 18 22
2645 5 17 18 24
2646 3 17 18 38
2647 1 17 18 42
2648 5 17 18 44
2649 3 17 18 48
2650 3 19 18 23
2651 3 19 18 43
2652 3 19 18 113
2653 5 19 18 117
2654 1 19 18 119
2655 3 19 18 123
2656 5 19 18 12
2657 1 19 18 14
2658 5 19 18 22
2659 1 19 18 24
2660 3 19 18 38
2661 5 19 18 42
2662 1 19 18 44
2663 3 19 18 48
2664 3 23 18 43
2665 5 23 18 113
2666 3 23 18 117
2667 3 23 18 119
2668 1 23 18 123
2669 5 23 18 12
2670 5 23 18 14
2671 1 23 18 22
2672 1 23 18 24
2673 5 23 18 38
2674 3 23 18 42
2675 3 23 18 44
2676 1 23 18 48
2677 5 43 18 113
2678 5 43 18 117
2679 5 43 18 119
2680 5 43 18 123
2681 3 43 18 12
2682 3 43 18 14
2683 3 43 18 22
2684 3 43 18 24
2685 1 43 18 38
2686 1 43 18 42
2687 1 43 18 44
2688 1 43 18 48
2689 2 113 18 117
2690 2 113 18 119
2691 3 113 18 123
2692 2 113 18 12
2693 2 113 18 14
2694 4 113 18 22
2695 4 113 18 24
2696 3 113 18 38
2697 4 113 18 42
2698 4 113 18 44
2699 6 113 18 48
2700 3 117 18 119
2701 2 117 18 123
2702 2 117 18 12
2703 4 117 18 14
2704 2 117 18 22
2705 4 117 18 24
2706 4 117 18 38
2707 3 117 18 42
2708 6 117 18 44
2709 4 117 18 48
2710 2 119 18 123
2711 4 119 18 12
2712 2 119 18 14
2713 4 119 18 22
2714 2 119 18 24
2715 4 119 18 38
2716 6 119 18 42
2717 3 119 18 44
2718 4 119 18 48
2719 4 123 18 12
2720 4 123 18 14
2721 2 123 18 22
2722 2 123 18 24
2723 6 123 18 38
2724 4 123 18 42
2725 4 123 18 44
2726 3 123 18 48
2727 3 12 18 14
2728 3 12 18 22
2729 6 12 18 24
2730 2 12 18 38
2731 2 12 18 42
2732 4 12 18 44
2733 4 12 18 48
2734 6 14 18 22
2735 3 14 18 24
2736 2 14 18 38
2737 4 14 18 42
2738 2 14 18 44
2739 4 14 18 48
2740 3 22 18 24
2741 4 22 18 38
2742 2 22 18 42
2743 4 22 18 44
2744 2 22 18 48
2745 4 24 18 38
2746 4 24 18 42
2747 2 24 18 44
2748 2 24 18 48
2749 2 38 18 42
2750 2 38 18 44
2751 3 38 18 48
2752 3 42 18 44
2753 2 42 18 48
2754 2 44 18 48
2755 3 119 19 14
2756 3 119 19 18
2757 3 119 19 20
2758 3 119 19 24
2759 6 119 19 44
2760 1 119 19 114
2761 1 119 19 118
2762 1 119 19 120
2763 1 119 19 124
2764 3 119 19 13
2765 3 119 19 15
2766 3 119 19 23
2767 3 119 19 25
2768 5 119 19 39
2769 5 119 19 43
2770 5 119 19 45
2771 5 119 19 49
2772 3 14 19 18
2773 3 14 19 20
2774 6 14 19 24
2775 3 14 19 44
2776 1 14 19 114
2777 3 14 19 118
2778 3 14 19 120
2779 5 14 19 124
2780 1 14 19 13
2781 1 14 19 15
2782 5 14 19 23
2783 5 14 19 25
2784 1 14 19 39
2785 3 14 19 43
2786 3 14 19 45
2787 5 14 19 49
2788 6 18 19 20
2789 3 18 19 24
2790 3 18 19 44
2791 3 18 19 114
2792 1 18 19 118
2793 5 18 19 120
2794 3 18 19 124
2795 1 18 19 13
2796 5 18 19 15
2797 1 18 19 23
2798 5 18 19 25
2799 3 18 19 39
2800 1 18 19 43
2801 5 18 19 45
2802 3 18 19 49
2803 3 20 19 24
2804 3 20 19 44
2805 3 20 19 114
2806 5 20 19 118
2807 1 20 19 120
2808 3 20 19 124
2809 5 20 19 13
2810 1 20 19 15
2811 5 20 19 23
2812 1 20 19 25
2813 3 20 19 39
2814 5 20 19 43
2815 1 20 19 45
2816 3 20 19 49
2817 3 24 19 44
2818 5 24 19 114
2819 3 24 19 118
2820 3 24 19 120
2821 1 24 19 124
2822 5 24 19 13
2823 5 24 19 15
2824 1 24 19 23
2825 1 24 19 25
2826 5 24 19 39
2827 3 24 19 43
2828 3 24 19 45
2829 1 24 19 49
2830 5 44 19 114
2831 5 44 19 118
2832 5 44 19 120
2833 5 44 19 124
2834 3 44 19 13
2835 3 44 19 15
2836 3 44 19 23
2837 3 44 19 25
2838 1 44 19 39
2839 1 44 19 43
2840 1 44 19 45
2841 1 44 19 49
2842 2 114 19 118
2843 2 114 19 120
2844 3 114 19 124
2845 2 114 19 13
2846 2 114 19 15
2847 4 114 19 23
2848 4 114 19 25
2849 3 114 19 39
2850 4 114 19 43
2851 4 114 19 45
2852 6 114 19 49
2853 3 118 19 120
2854 2 118 19 124
2855 2 118 19 13
2856 4 118 19 15
2857 2 118 19 23
2858 4 118 19 25
2859 4 118 19 39
2860 3 118 19 43
2861 6 118 19 45
2862 4 118 19 49
2863 2 120 19 124
2864 4 120 19 13
2865 2 120 19 15
2866 4 120 19 23
2867 2 120 19 25
2868 4 120 19 39
2869 6 120 19 43
2870 3 120 19 45
2871 4 120 19 49
2872 4 124 19 13
2873 4 124 19 15
2874 2 124 19 23
2875 2 124 19 25
2876 6 124 19 39
2877 4 124 19 43
2878 4 124 19 45
2879 3 124 19 49
2880 3 13 19 15
2881 3 13 19 23
2882 6 13 19 25
2883 2 13 19 39
2884 2 13 19 43
2885 4 13 19 45
2886 4 13 19 49
2887 6 15 19 23
2888 3 15 19 25
2889 2 15 19 39
2890 4 15 19 43
2891 2 15 19 45
2892 4 15 19 49
2893 3 23 19 25
2894 4 23 19 39
2895 2 23 19 43
2896 4 23 19 45
2897 2 23 19 49
2898 4 25 19 39
2899 4 25 19 43
2900 2 25 19 45
2901 2 25 19 49
2902 2 39 19 43
2903 2 39 19 45
2904 3 39 19 49
2905 3 43 19 45
2906 2 43 19 49
2907 2 45 19 49
2908 3 120 20 15
2909 3 120 20 19
2910 3 120 20 16
2911 3 120 20 25
2912 6 120 20 45
2913 1 120 20 115
2914 1 120 20 119
2915 1 120 20 116
2916 1 120 20 125
2917 3 120 20 14
2918 3 120 20 11
2919 3 120 20 24
2920 3 120 20 21
2921 5 120 20 40
2922 5 120 20 44
2923 5 120 20 41
2924 5 120 20 50
2925 3 15 20 19
2926 3 15 20 16
2927 6 15 20 25
2928 3 15 20 45
2929 1 15 20 115
2930 3 15 20 119
2931 3 15 20 116
2932 5 15 20 125
2933 1 15 20 14
2934 1 15 20 11
2935 5 15 20 24
2936 5 15 20 21
2937 1 15 20 40
2938 3 15 20 44
2939 3 15 20 41
2940 5 15 20 50
2941 6 19 20 16
2942 3 19 20 25
2943 3 19 20 45
2944 3 19 20 115
2945 1 19 20 119
2946 5 19 20 116
2947 3 19 20 125
2948 1 19 20 14
2949 5 19 20 11
2950 1 19 20 24
2951 5 19 20 21
2952 3 19 20 40
2953 1 19 20 44
2954 5 19 20 41
2955 3 19 20 50
2956 3 16 20 25
2957 3 16 20 45
2958 3 16 20 115
2959 5 16 20 119
2960 1 16 20 116
2961 3 16 20 125
2962 5 16 20 14
2963 1 16 20 11
2964 5 16 20 24
2965 1 16 20 21
2966 3 16 20 40
2967 5 16 20 44
2968 1 16 20 41
2969 3 16 20 50
2970 3 25 20 45
2971 5 25 20 115
2972 3 25 20 119
2973 3 25 20 116
2974 1 25 20 125
2975 5 25 20 14
2976 5 25 20 11
2977 1 25 20 24
2978 1 25 20 21
2979 5 25 20 40
2980 3 25 20 44
2981 3 25 20 41
2982 1 25 20 50
2983 5 45 20 115
2984 5 45 20 119
2985 5 45 20 116
2986 5 45 20 125
2987 3 45 20 14
2988 3 45 20 11
2989 3 45 20 24
2990 3 45 20 21
2991 1 45 20 40
2992 1 45 20 44
2993 1 45 20 41
2994 1 45 20 50
2995 2 115 20 119
2996 2 115 20 116
2997 3 115 20 125
2998 2 115 20 14
2999 2 115 20 11
3000 4 115 20 24
3001 4 115 20 21
3002 3 115 20 40
3003 4 115 20 44
3004 4 115 20 41
3005 6 115 20 50
3006 3 119 20 116
3007 2 119 20 125
3008 2 119 20 14
3009 4 119 20 11
3010 2 119 20 24
3011 4 119 20 21
3012 4 119 20 40
3013 3 119 20 44
3014 6 119 20 41
3015 4 119 20 50
3016 2 116 20 125
3017 4 116 20 14
3018 2 116 20 11
3019 4 116 20 24
3020 2 116 20 21
3021 4 116 20 40
3022 6 116 20 44
3023 3 116 20 41
3024 4 116 20 50
3025 4 125 20 14
3026 4 125 20 11
3027 2 125 20 24
3028 2 125 20 21
3029 6 125 20 40
3030 4 125 20 44
3031 4 125 20 41
3032 3 125 20 50
3033 3 14 20 11
3034 3 14 20 24
3035 6 14 20 21
3036 2 14 20 40
3037 2 14 20 44
3038 4 14 20 41
3039 4 14 20 50
3040 6 11 20 24
3041 3 11 20 21
3042 2 11 20 40
3043 4 11 20 44
3044 2 11 20 41
3045 4 11 20 50
3046 3 24 20 21
3047 4 24 20 40
3048 2 24 20 44
3049 4 24 20 41
3050 2 24 20 50
3051 4 21 20 40
3052 4 21 20 44
3053 2 21 20 41
3054 2 21 20 50
3055 2 40 20 44
3056 2 40 20 41
3057 3 40 20 50
3058 3 44 20 41
3059 2 44 20 50
3060 2 41 20 50
3061 3 121 21 16
3062 3 121 21 25
3063 3 121 21 22
3064 3 121 21 1
3065 6 121 21 46
3066 1 121 21 116
3067 1 121 21 125
3068 1 121 21 122
3069 1 121 21 101
3070 3 121 21 20
3071 3 121 21 17
3072 3 121 21 5
3073 3 121 21 2
3074 5 121 21 41
3075 5 121 21 50
3076 5 121 21 47
3077 5 121 21 26
3078 3 16 21 25
3079 3 16 21 22
3080 6 16 21 1
3081 3 16 21 46
3082 1 16 21 116
3083 3 16 21 125
3084 3 16 21 122
3085 5 16 21 101
3086 1 16 21 20
3087 1 16 21 17
3088 5 16 21 5
3089 5 16 21 2
3090 1 16 21 41
3091 3 16 21 50
3092 3 16 21 47
3093 5 16 21 26
3094 6 25 21 22
3095 3 25 21 1
3096 3 25 21 46
3097 3 25 21 116
3098 1 25 21 125
3099 5 25 21 122
3100 3 25 21 101
3101 1 25 21 20
3102 5 25 21 17
3103 1 25 21 5
3104 5 25 21 2
3105 3 25 21 41
3106 1 25 21 50
3107 5 25 21 47
3108 3 25 21 26
3109 3 22 21 1
3110 3 22 21 46
3111 3 22 21 116
3112 5 22 21 125
3113 1 22 21 122
3114 3 22 21 101
3115 5 22 21 20
3116 1 22 21 17
3117 5 22 21 5
3118 1 22 21 2
3119 3 22 21 41
3120 5 22 21 50
3121 1 22 21 47
3122 3 22 21 26
3123 3 1 21 46
3124 5 1 21 116
3125 3 1 21 125
3126 3 1 21 122
3127 1 1 21 101
3128 5 1 21 20
3129 5 1 21 17
3130 1 1 21 5
3131 1 1 21 2
3132 5 1 21 41
3133 3 1 21 50
3134 3 1 21 47
3135 1 1 21 26
3136 5 46 21 116
3137 5 46 21 125
3138 5 46 21 122
3139 5 46 21 101
3140 3 46 21 20
3141 3 46 21 17
3142 3 46 21 5
3143 3 46 21 2
3144 1 46 21 41
3145 1 46 21 50
3146 1 46 21 47
3147 1 46 21 26
3148 2 116 21 125
3149 2 116 21 122
3150 3 116 21 101
3151 2 116 21 20
3152 2 116 21 17
3153 4 116 21 5
3154 4 116 21 2
3155 3 116 21 41
3156 4 116 21 50
3157 4 116 21 47
3158 6 116 21 26
3159 3 125 21 122
3160 2 125 21 101
3161 2 125 21 20
3162 4 125 21 17
3163 2 125 21 5
3164 4 125 21 2
3165 4 125 21 41
3166 3 125 21 50
3167 6 125 21 47
3168 4 125 21 26
3169 2 122 21 101
3170 4 122 21 20
3171 2 122 21 17
3172 4 122 21 5
3173 2 122 21 2
3174 4 122 21 41
3175 6 122 21 50
3176 3 122 21 47
3177 4 122 21 26
3178 4 101 21 20
3179 4 101 21 17
3180 2 101 21 5
3181 2 101 21 2
3182 6 101 21 41
3183 4 101 21 50
3184 4 101 21 47
3185 3 101 21 26
3186 3 20 21 17
3187 3 20 21 5
3188 6 20 21 2
3189 2 20 21 41
3190 2 20 21 50
3191 4 20 21 47
3192 4 20 21 26
3193 6 17 21 5
3194 3 17 21 2
3195 2 17 21 41
3196 4 17 21 50
3197 2 17 21 47
3198 4 17 21 26
3199 3 5 21 2
3200 4 5 21 41
3201 2 5 21 50
3202 4 5 21 47
3203 2 5 21 26
3204 4 2 21 41
3205 4 2 21 50
3206 2 2 21 47
3207 2 2 21 26
3208 2 41 21 50
3209 2 41 21 47
3210 3 41 21 26
3211 3 50 21 47
3212 2 50 21 26
3213 2 47 21 26
3214 3 122 22 17
3215 3 122 22 21
3216 3 122 22 23
3217 3 122 22 2
3218 6 122 22 47
3219 1 122 22 117
3220 1 122 22 121
3221 1 122 22 123
3222 1 122 22 102
3223 3 122 22 16
3224 3 122 22 18
3225 3 122 22 1
3226 3 122 22 3
3227 5 122 22 42
3228 5 122 22 46
3229 5 122 22 48
3230 5 122 22 27
3231 3 17 22 21
3232 3 17 22 23
3233 6 17 22 2
3234 3 17 22 47
3235 1 17 22 117
3236 3 17 22 121
3237 3 17 22 123
3238 5 17 22 102
3239 1 17 22 16
3240 1 17 22 18
3241 5 17 22 1
3242 5 17 22 3
3243 1 17 22 42
3244 3 17 22 46
3245 3 17 22 48
3246 5 17 22 27
3247 6 21 22 23
3248 3 21 22 2
3249 3 21 22 47
3250 3 21 22 117
3251 1 21 22 121
3252 5 21 22 123
3253 3 21 22 102
3254 1 21 22 16
3255 5 21 22 18
3256 1 21 22 1
3257 5 21 22 3
3258 3 21 22 42
3259 1 21 22 46
3260 5 21 22 48
3261 3 21 22 27
3262 3 23 22 2
3263 3 23 22 47
3264 3 23 22 117
3265 5 23 22 121
3266 1 23 22 123
3267 3 23 22 102
3268 5 23 22 16
3269 1 23 22 18
3270 5 23 22 1
3271 1 23 22 3
3272 3 23 22 42
3273 5 23 22 46
3274 1 23 22 48
3275 3 23 22 27
3276 3 2 22 47
3277 5 2 22 117
3278 3 2 22 121
3279 3 2 22 123
3280 1 2 22 102
3281 5 2 22 16
3282 5 2 22 18
3283 1 2 22 1
3284 1 2 22 3
3285 5 2 22 42
3286 3 2 22 46
3287 3 2 22 48
3288 1 2 22 27
3289 5 47 22 117
3290 5 47 22 121
3291 5 47 22 123
3292 5 47 22 102
3293 3 47 22 16
3294 3 47 22 18
3295 3 47 22 1
3296 3 47 22 3
3297 1 47 22 42
3298 1 47 22 46
3299 1 47 22 48
3300 1 47 22 27
3301 2 117 22 121
3302 2 117 22 123
3303 3 117 22 102
3304 2 117 22 16
3305 2 117 22 18
3306 4 117 22 1
3307 4 117 22 3
3308 3 117 22 42
3309 4 117 22 46
3310 4 117 22 48
3311 6 117 22 27
3312 3 121 22 123
3313 2 121 22 102
3314 2 121 22 16
3315 4 121 22 18
3316 2 121 22 1
3317 4 121 22 3
3318 4 121 22 42
3319 3 121 22 46
3320 6 121 22 48
3321 4 121 22 27
3322 2 123 22 102
3323 4 123 22 16
3324 2 123 22 18
3325 4 123 22 1
3326 2 123 22 3
3327 4 123 22 42
3328 6 123 22 46
3329 3 123 22 48
3330 4 123 22 27
3331 4 102 22 16
3332 4 102 22 18
3333 2 102 22 1
3334 2 102 22 3
3335 6 102 22 42
3336 4 102 22 46
3337 4 102 22 48
3338 3 102 22 27
3339 3 16 22 18
3340 3 16 22 1
3341 6 16 22 3
3342 2 16 22 42
3343 2 16 22 46
3344 4 16 22 48
3345 4 16 22 27
3346 6 18 22 1
3347 3 18 22 3
3348 2 18 22 42
3349 4 18 22 46
3350 2 18 22 48
3351 4 18 22 27
3352 3 1 22 3
3353 4 1 22 42
3354 2 1 22 46
3355 4 1 22 48
3356 2 1 22 27
3357 4 3 22 42
3358 4 3 22 46
3359 2 3 22 48
3360 2 3 22 27
3361 2 42 22 46
3362 2 42 22 48
3363 3 42 22 27
3364 3 46 22 48
3365 2 46 22 27
3366 2 48 22 27
3367 3 123 23 18
3368 3 123 23 22
3369 3 123 23 24
3370 3 123 23 3
3371 6 123 23 48
3372 1 123 23 118
3373 1 123 23 122
3374 1 123 23 124
3375 1 123 23 103
3376 3 123 23 17
3377 3 123 23 19
3378 3 123 23 2
3379 3 123 23 4
3380 5 123 23 43
3381 5 123 23 47
3382 5 123 23 49
3383 5 123 23 28
3384 3 18 23 22
3385 3 18 23 24
3386 6 18 23 3
3387 3 18 23 48
3388 1 18 23 118
3389 3 18 23 122
3390 3 18 23 124
3391 5 18 23 103
3392 1 18 23 17
3393 1 18 23 19
3394 5 18 23 2
3395 5 18 23 4
3396 1 18 23 43
3397 3 18 23 47
3398 3 18 23 49
3399 5 18 23 28
3400 6 22 23 24
3401 3 22 23 3
3402 3 22 23 48
3403 3 22 23 118
3404 1 22 23 122
3405 5 22 23 124
3406 3 22 23 103
3407 1 22 23 17
3408 5 22 23 19
3409 1 22 23 2
3410 5 22 23 4
3411 3 22 23 43
3412 1 22 23 47
3413 5 22 23 49
3414 3 22 23 28
3415 3 24 23 3
3416 3 24 23 48
3417 3 24 23 118
3418 5 24 23 122
3419 1 24 23 124
3420 3 24 23 103
3421 5 24 23 17
3422 1 24 23 19
3423 5 24 23 2
3424 1 24 23 4
3425 3 24 23 43
3426 5 24 23 47
3427 1 24 23 49
3428 3 24 23 28
3429 3 3 23 48
3430 5 3 23 118
3431 3 3 23 122
3432 3 3 23 124
3433 1 3 23 103
3434 5 3 23 17
3435 5 3 23 19
3436 1 3 23 2
3437 1 3 23 4
3438 5 3 23 43
3439 3 3 23 47
3440 3 3 23 49
3441 1 3 23 28
3442 5 48 23 118
3443 5 48 23 122
3444 5 48 23 124
3445 5 48 23 103
3446 3 48 23 17
3447 3 48 23 19
3448 3 48 23 2
3449 3 48 23 4
3450 1 48 23 43
3451 1 48 23 47
3452 1 48 23 49
3453 1 48 23 28
3454 2 118 23 122
3455 2 118 23 124
3456 3 118 23 103
3457 2 118 23 17
3458 2 118 23 19
3459 4 118 23 2
3460 4 118 23 4
3461 3 118 23 43
3462 4 118 23 47
3463 4 118 23 49
3464 6 118 23 28
3465 3 122 23 124
3466 2 122 23 103
3467 2 122 23 17
3468 4 122 23 19
3469 2 122 23 2
3470 4 122 23 4
3471 4 122 23 43
3472 3 122 23 47
3473 6 122 23 49
3474 4 122 23 28
3475 2 124 23 103
3476 4 124 23 17
3477 2 124 23 19
3478 4 124 23 2
3479 2 124 23 4
3480 4 124 23 43
3481 6 124 23 47
3482 3 124 23 49
3483 4 124 23 28
3484 4 103 23 17
3485 4 103 23 19
3486 2 103 23 2
3487 2 103 23 4
3488 6 103 23 43
3489 4 103 23 47
3490 4 103 23 49
3491 3 103 23 28
3492 3 17 23 19
3493 3 17 23 2
3494 6 17 23 4
3495 2 17 23 43
3496 2 17 23 47
3497 4 17 23 49
3498 4 17 23 28
3499 6 19 23 2
3500 3 19 23 4
3501 2 19 23 43
3502 4 19 23 47
3503 2 19 23 49
3504 4 19 23 28
3505 3 2 23 4
3506 4 2 23 43
3507 2 2 23 47
3508 4 2 23 49
3509 2 2 23 28
3510 4 4 23 43
3511 4 4 23 47
3512 2 4 23 49
3513 2 4 23 28
3514 2 43 23 47
3515 2 43 23 49
3516 3 43 23 28
3517 3 47 23 49
3518 2 47 23 28
3519 2 49 23 28
3520 3 124 24 19
3521 3 124 24 23
3522 3 124 24 25
3523 3 124 24 4
3524 6 124 24 49
3525 1 124 24 119
3526 1 124 24 123
3527 1 124 24 125
3528 1 124 24 104
3529 3 124 24 18
3530 3 124 24 20
3531 3 124 24 3
3532 3 124 24 5
3533 5 124 24 44
3534 5 124 24 48
3535 5 124 24 50
3536 5 124 24 29
3537 3 19 24 23
3538 3 19 24 25
3539 6 19 24 4
3540 3 19 24 49
3541 1 19 24 119
3542 3 19 24 123
3543 3 19 24 125
3544 5 19 24 104
3545 1 19 24 18
3546 1 19 24 20
3547 5 19 24 3
3548 5 19 24 5
3549 1 19 24 44
3550 3 19 24 48
3551 3 19 24 50
3552 5 19 24 29
3553 6 23 24 25
3554 3 23 24 4
3555 3 23 24 49
3556 3 23 24 119
3557 1 23 24 123
3558 5 23 24 125
3559 3 23 24 104
3560 1 23 24 18
3561 5 23 24 20
3562 1 23 24 3
3563 5 23 24 5
3564 3 23 24 44
3565 1 23 24 48
3566 5 23 24 50
3567 3 23 24 29
3568 3 25 24 4
3569 3 25 24 49
3570 3 25 24 119
3571 5 25 24 123
3572 1 25 24 125
3573 3 25 24 104
3574 5 25 24 18
3575 1 25 24 20
3576 5 25 24 3
3577 1 25 24 5
3578 3 25 24 44
3579 5 25 24 48
3580 1 25 24 50
3581 3 25 24 29
3582 3 4 24 49
3583 5 4 24 119
3584 3 4 24 123
3585 3 4 24 125
3586 1 4 24 104
3587 5 4 24 18
3588 5 4 24 20
3589 1 4 24 3
3590 1 4 24 5
3591 5 4 24 44
3592 3 4 24 48
3593 3 4 24 50
3594 1 4 24 29
3595 5 49 24 119
3596 5 49 24 123
3597 5 49 24 125
3598 5 49 24 104
3599 3 49 24 18
3600 3 49 24 20
3601 3 49 24 3
3602 3 49 24 5
3603 1 49 24 44
3604 1 49 24 48
3605 1 49 24 50
3606 1 49 24 29
3607 2 119 24 123
3608 2 119 24 125
3609 3 119 24 104
3610 2 119 24 18
3611 2 119 24 20
3612 4 119 24 3
3613 4 119 24 5
3614 3 119 24 44
3615 4 119 24 48
3616 4 119 24 50
3617 6 119 24 29
3618 3 123 24 125
3619 2 123 24 104
3620 2 123 24 18
3621 4 123 24 20
3622 2 123 24 3
3623 4 123 24 5
3624 4 123 24 44
3625 3 123 24 48
3626 6 123 24 50
3627 4 123 24 29
3628 2 125 24 104
3629 4 125 24 18
3630 2 125 24 20
3631 4 125 24 3
3632 2 125 24 5
3633 4 125 24 44
3634 6 125 24 48
3635 3 125 24 50
3636 4 125 24 29
3637 4 104 24 18
3638 4 104 24 20
3639 2 104 24 3
3640 2 104 24 5
3641 6 104 24 44
3642 4 104 24 48
3643 4 104 24 50
3644 3 104 24 29
3645 3 18 24 20
3646 3 18 24 3
3647 6 18 24 5
3648 2 18 24 44
3649 2 18 24 48
3650 4 18 24 50
3651 4 18 24 29
3652 6 20 24 3
3653 3 20 24 5
3654 2 20 24 44
3655 4 20 24 48
3656 2 20 24 50
3657 4 20 24 29
3658 3 3 24 5
3659 4 3 24 44
3660 2 3 24 48
3661 4 3 24 50
3662 2 3 24 29
3663 4 5 24 44
3664 4 5 24 48
3665 2 5 24 50
3666 2 5 24 29
3667 2 44 24 48
3668 2 44 24 50
3669 3 44 24 29
3670 3 48 24 50
3671 2 48 24 29
3672 2 50 24 29
3673 3 125 25 20
3674 3 125 25 24
3675 3 125 25 21
3676 3 125 25 5
3677 6 125 25 50
3678 1 125 25 120
3679 1 125 25 124
3680 1 125 25 121
3681 1 125 25 105
3682 3 125 25 19
3683 3 125 25 16
3684 3 125 25 4
3685 3 125 25 1
3686 5 125 25 45
3687 5 125 25 49
3688 5 125 25 46
3689 5 125 25 30
3690 3 20 25 24
3691 3 20 25 21
3692 6 20 25 5
3693 3 20 25 50
3694 1 20 25 120
3695 3 20 25 124
3696 3 20 25 121
3697 5 20 25 105
3698 1 20 25 19
3699 1 20 25 16
3700 5 20 25 4
3701 5 20 25 1
3702 1 20 25 45
3703 3 20 25 49
3704 3 20 25 46
3705 5 20 25 30
3706 6 24 25 21
3707 3 24 25 5
3708 3 24 25 50
3709 3 24 25 120
3710 1 24 25 124
3711 5 24 25 121
3712 3 24 25 105
3713 1 24 25 19
3714 5 24 25 16
3715 1 24 25 4
3716 5 24 25 1
3717 3 24 25 45
3718 1 24 25 49
3719 5 24 25 46
3720 3 24 25 30
3721 3 21 25 5
3722 3 21 25 50
3723 3 21 25 120
3724 5 21 25 124
3725 1 21 25 121
3726 3 21 25 105
3727 5 21 25 19
3728 1 21 25 16
3729 5 21 25 4
3730 1 21 25 1
3731 3 21 25 45
3732 5 21 25 49
3733 1 21 25 46
3734 3 21 25 30
3735 3 5 25 50
3736 5 5 25 120
3737 3 5 25 124
3738 3 5 25 121
3739 1 5 25 105
3740 5 5 25 19
3741 5 5 25 16
3742 1 5 25 4
3743 1 5 25 1
3744 5 5 25 45
3745 3 5 25 49
3746 3 5 25 46
3747 1 5 25 30
3748 5 50 25 120
3749 5 50 25 124
3750 5 50 25 121
3751 5 50 25 105
3752 3 50 25 19
3753 3 50 25 16
3754 3 50 25 4
3755 3 50 25 1
3756 1 50 25 45
3757 1 50 25 49
3758 1 50 25 46
3759 1 50 25 30
3760 2 120 25 124
3761 2 120 25 121
3762 3 120 25 105
3763 2 120 25 19
3764 2 120 25 16
3765 4 120 25 4
3766 4 120 25 1
3767 3 120 25 45
3768 4 120 25 49
3769 4 120 25 46
3770 6 120 25 30
3771 3 124 25 121
3772 2 124 25 105
3773 2 124 25 19
3774 4 124 25 16
3775 2 124 25 4
3776 4 124 25 1
3777 4 124 25 45
3778 3 124 25 49
3779 6 124 25 46
3780 4 124 25 30
3781 2 121 25 105
3782 4 121 25 19
3783 2 121 25 16
3784 4 121 25 4
3785 2 121 25 1
3786 4 121 25 45
3787 6 121 25 49
3788 3 121 25 46
3789 4 121 25 30
3790 4 105 25 19
3791 4 105 25 16
3792 2 105 25 4
3793 2 105 25 1
3794 6 105 25 45
3795 4 105 25 49
3796 4 105 25 46
3797 3 105 25 30
3798 3 19 25 16
3799 3 19 25 4
3800 6 19 25 1
3801 2 19 25 45
3802 2 19 25 49
3803 4 19 25 46
3804 4 19 25 30
3805 6 16 25 4
3806 3 16 25 1
3807 2 16 25 45
3808 4 16 25 49
3809 2 16 25 46
3810 4 16 25 30
3811 3 4 25 1
3812 4 4 25 45
3813 2 4 25 49
3814 4 4 25 46
3815 2 4 25 30
3816 4 1 25 45
3817 4 1 25 49
3818 2 1 25 46
3819 2 1 25 30
3820 2 45 25 49
3821 2 45 25 46
3822 3 45 25 30
3823 3 49 25 46
3824 2 49 25 30
3825 2 46 25 30
3826 3 1 26 46
3827 3 1 26 30
3828 3 1 26 27
3829 3 1 26 31
3830 6 1 26 51
3831 1 1 26 21
3832 1 1 26 5
3833 1 1 26 2
3834 1 1 26 6
3835 3 1 26 50
3836 3 1 26 47
3837 3 1 26 35
3838 3 1 26 32
3839 5 1 26 71
3840 5 1 26 55
3841 5 1 26 52
3842 5 1 26 56
3843 3 46 26 30
3844 3 46 26 27
3845 6 46 26 31
3846 3 46 26 51
3847 1 46 26 21
3848 3 46 26 5
3849 3 46 26 2
3850 5 46 26 6
3851 1 46 26 50
3852 1 46 26 47
3853 5 46 26 35
3854 5 46 26 32
3855 1 46 26 71
3856 3 46 26 55
3857 3 46 26 52
3858 5 46 26 56
3859 6 30 26 27
3860 3 30 26 31
3861 3 30 26 51
3862 3 30 26 21
3863 1 30 26 5
3864 5 30 26 2
3865 3 30 26 6
3866 1 30 26 50
3867 5 30 26 47
3868 1 30 26 35
3869 5 30 26 32
3870 3 30 26 71
3871 1 30 26 55
3872 5 30 26 52
3873 3 30 26 56
3874 3 27 26 31
3875 3 27 26 51
3876 3 27 26 21
3877 5 27 26 5
3878 1 27 26 2
3879 3 27 26 6
3880 5 27 26 50
3881 1 27 26 47
3882 5 27 26 35
3883 1 27 26 32
3884 3 27 26 71
3885 5 27 26 55
3886 1 27 26 52
3887 3 27 26 56
3888 3 31 26 51
3889 5 31 26 21
3890 3 31 26 5
3891 3 31 26 2
3892 1 31 26 6
3893 5 31 26 50
3894 5 31 26 47
3895 1 31 26 35
3896 1 31 26 32
3897 5 31 26 71
3898 3 31 26 55
3899 3 31 26 52
3900 1 31 26 56
3901 5 51 26 21
3902 5 51 26 5
3903 5 51 26 2
3904 5 51 26 6
3905 3 51 26 50
3906 3 51 26 47
3907 3 51 26 35
3908 3 51 26 32
3909 1 51 26 71
3910 1 51 26 55
3911 1 51 26 52
3912 1 51 26 56
3913 2 21 26 5
3914 2 21 26 2
3915 3 21 26 6
3916 2 21 26 50
3917 2 21 26 47
3918 4 21 26 35
3919 4 21 26 32
3920 3 21 26 71
3921 4 21 26 55
3922 4 21 26 52
3923 6 21 26 56
3924 3 5 26 2
3925 2 5 26 6
3926 2 5 26 50
3927 4 5 26 47
3928 2 5 26 35
3929 4 5 26 32
3930 4 5 26 71
3931 3 5 26 55
3932 6 5 26 52
3933 4 5 26 56
3934 2 2 26 6
3935 4 2 26 50
3936 2 2 26 47
3937 4 2 26 35
3938 2 2 26 32
3939 4 2 26 71
3940 6 2 26 55
3941 3 2 26 52
3942 4 2 26 56
3943 4 6 26 50
3944 4 6 26 47
3945 2 6 26 35
3946 2 6 26 32
3947 6 6 26 71
3948 4 6 26 55
3949 4 6 26 52
3950 3 6 26 56
3951 3 50 26 47
3952 3 50 26 35
3953 6 50 26 32
3954 2 50 26 71
3955 2 50 26 55
3956 4 50 26 52
3957 4 50 26 56
3958 6 47 26 35
3959 3 47 26 32
3960 2 47 26 71
3961 4 47 26 55
3962 2 47 26 52
3963 4 47 26 56
3964 3 35 26 32
3965 4 35 26 71
3966 2 35 26 55
3967 4 35 26 52
3968 2 35 26 56
3969 4 32 26 71
3970 4 32 26 55
3971 2 32 26 52
3972 2 32 26 56
3973 2 71 26 55
3974 2 71 26 52
3975 3 71 26 56
3976 3 55 26 52
3977 2 55 26 56
3978 2 52 26 56
3979 3 2 27 47
3980 3 2 27 26
3981 3 2 27 28
3982 3 2 27 32
3983 6 2 27 52
3984 1 2 27 22
3985 1 2 27 1
3986 1 2 27 3
3987 1 2 27 7
3988 3 2 27 46
3989 3 2 27 48
3990 3 2 27 31
3991 3 2 27 33
3992 5 2 27 72
3993 5 2 27 51
3994 5 2 27 53
3995 5 2 27 57
3996 3 47 27 26
3997 3 47 27 28
3998 6 47 27 32
3999 3 47 27 52
4000 1 47 27 22
4001 3 47 27 1
4002 3 47 27 3
4003 5 47 27 7
4004 1 47 27 46
4005 1 47 27 48
4006 5 47 27 31
4007 5 47 27 33
4008 1 47 27 72
4009 3 47 27 51
4010 3 47 27 53
4011 5 47 27 57
4012 6 26 27 28
4013 3 26 27 32
4014 3 26 27 52
4015 3 26 27 22
4016 1 26 27 1
4017 5 26 27 3
4018 3 26 27 7
4019 1 26 27 46
4020 5 26 27 48
4021 1 26 27 31
4022 5 26 27 33
4023 3 26 27 72
4024 1 26 27 51
4025 5 26 27 53
4026 3 26 27 57
4027 3 28 27 32
4028 3 28 27 52
4029 3 28 27 22
4030 5 28 27 1
4031 1 28 27 3
4032 3 28 27 7
4033 5 28 27 46
4034 1 28 27 48
4035 5 28 27 31
4036 1 28 27 33
4037 3 28 27 72
4038 5 28 27 51
4039 1 28 27 53
4040 3 28 27 57
4041 3 32 27 52
4042 5 32 27 22
4043 3 32 27 1
4044 3 32 27 3
4045 1 32 27 7
4046 5 32 27 46
4047 5 32 27 48
4048 1 32 27 31
4049 1 32 27 33
4050 5 32 27 72
4051 3 32 27 51
4052 3 32 27 53
4053 1 32 27 57
4054 5 52 27 22
4055 5 52 27 1
4056 5 52 27 3
4057 5 52 27 7
4058 3 52 27 46
4059 3 52 27 48
4060 3 52 27 31
4061 3 52 27 33
4062 1 52 27 72
4063 1 52 27 51
4064 1 52 27 53
4065 1 52 27 57
4066 2 22 27 1
4067 2 22 27 3
4068 3 22 27 7
4069 2 22 27 46
4070 2 22 27 48
4071 4 22 27 31
4072 4 22 27 33
4073 3 22 27 72
4074 4 22 27 51
4075 4 22 27 53
4076 6 22 27 57
4077 3 1 27 3
4078 2 1 27 7
4079 2 1 27 46
4080 4 1 27 48
4081 2 1 27 31
4082 4 1 27 33
4083 4 1 27 72
4084 3 1 27 51
4085 6 1 27 53
4086 4 1 27 57
4087 2 3 27 7
4088 4 3 27 46
4089 2 3 27 48
4090 4 3 27 31
4091 2 3 27 33
4092 4 3 27 72
4093 6 3 27 51
4094 3 3 27 53
4095 4 3 27 57
4096 4 7 27 46
4097 4 7 27 48
4098 2 7 27 31
4099 2 7 27 33
4100 6 7 27 72
4101 4 7 27 51
4102 4 7 27 53
4103 3 7 27 57
4104 3 46 27 48
4105 3 46 27 31
4106 6 46 27 33
4107 2 46 27 72
4108 2 46 27 51
4109 4 46 27 53
4110 4 46 27 57
4111 6 48 27 31
4112 3 48 27 33
4113 2 48 27 72
4114 4 48 27 51
4115 2 48 27 53
4116 4 48 27 57
4117 3 31 27 33
4118 4 31 27 72
4119 2 31 27 51
4120 4 31 27 53
4121 2 31 27 57
4122 4 33 27 72
4123 4 33 27 51
4124 2 33 27 53
4125 2 33 27 57
4126 2 72 27 51
4127 2 72 27 53
4128 3 72 27 57
4129 3 51 27 53
4130 2 51 27 57
4131 2 53 27 57
4132 3 3 28 48
4133 3 3 28 27
4134 3 3 28 29
4135 3 3 28 33
4136 6 3 28 53
4137 1 3 28 23
4138 1 3 28 2
4139 1 3 28 4
4140 1 3 28 8
4141 3 3 28 47
4142 3 3 28 49
4143 3 3 28 32
4144 3 3 28 34
4145 5 3 28 73
4146 5 3 28 52
4147 5 3 28 54
4148 5 3 28 58
4149 3 48 28 27
4150 3 48 28 29
4151 6 48 28 33
4152 3 48 28 53
4153 1 48 28 23
4154 3 48 28 2
4155 3 48 28 4
4156 5 48 28 8
4157 1 48 28 47
4158 1 48 28 49
4159 5 48 28 32
4160 5 48 28 34
4161 1 48 28 73
4162 3 48 28 52
4163 3 48 28 54
4164 5 48 28 58
4165 6 27 28 29
4166 3 27 28 33
4167 3 27 28 53
4168 3 27 28 23
4169 1 27 28 2
4170 5 27 28 4
4171 3 27 28 8
4172 1 27 28 47
4173 5 27 28 49
4174 1 27 28 32
4175 5 27 28 34
4176 3 27 28 73
4177 1 27 28 52
4178 5 27 28 54
4179 3 27 28 58
4180 3 29 28 33
4181 3 29 28 53
4182 3 29 28 23
4183 5 29 28 2
4184 1 29 28 4
4185 3 29 28 8
4186 5 29 28 47
4187 1 29 28 49
4188 5 29 28 32
4189 1 29 28 34
4190 3 29 28 73
4191 5 29 28 52
4192 1 29 28 54
4193 3 29 28 58
4194 3 33 28 53
4195 5 33 28 23
4196 3 33 28 2
4197 3 33 28 4
4198 1 33 28 8
4199 5 33 28 47
4200 5 33 28 49
4201 1 33 28 32
4202 1 33 28 34
4203 5 33 28 73
4204 3 33 28 52
4205 3 33 28 54
4206 1 33 28 58
4207 5 53 28 23
4208 5 53 28 2
4209 5 53 28 4
4210 5 53 28 8
4211 3 53 28 47
4212 3 53 28 49
4213 3 53 28 32
4214 3 53 28 34
4215 1 53 28 73
4216 1 53 28 52
4217 1 53 28 54
4218 1 53 28 58
4219 2 23 28 2
4220 2 23 28 4
4221 3 23 28 8
4222 2 23 28 47
4223 2 23 28 49
4224 4 23 28 32
4225 4 23 28 34
4226 3 23 28 73
4227 4 23 28 52
4228 4 23 28 54
4229 6 23 28 58
4230 3 2 28 4
4231 2 2 28 8
4232 2 2 28 47
4233 4 2 28 49
4234 2 2 28 32
4235 4 2 28 34
4236 4 2 28 73
4237 3 2 28 52
4238 6 2 28 54
4239 4 2 28 58
4240 2 4 28 8
4241 4 4 28 47
4242 2 4 28 49
4243 4 4 28 32
4244 2 4 28 34
4245 4 4 28 73
4246 6 4 28 52
4247 3 4 28 54
4248 4 4 28 58
4249 4 8 28 47
4250 4 8 28 49
4251 2 8 28 32
4252 2 8 28 34
4253 6 8 28 73
4254 4 8 28 52
4255 4 8 28 54
4256 3 8 28 58
4257 3 47 28 49
4258 3 47 28 32
4259 6 47 28 34
4260 2 47 28 73
4261 2 47 28 52
4262 4 47 28 54
4263 4 47 28 58
4264 6 49 28 32
4265 3 49 28 34
4266 2 49 28 73
4267 4 49 28 52
4268 2 49 28 54
4269 4 49 28 58
4270 3 32 28 34
4271 4 32 28 73
4272 2 32 28 52
4273 4 32 28 54
4274 2 32 28 58
4275 4 34 28 73
4276 4 34 28 52
4277 2 34 28 54
4278 2 34 28 58
4279 2 73 28 52
4280 2 73 28 54
4281 3 73 28 58
4282 3 52 28 54
4283 2 52 28 58
4284 2 54 28 58
4285 3 4 29 49
4286 3 4 29 28
4287 3 4 29 30
4288 3 4 29 34
4289 6 4 29 54
4290 1 4 29 24
4291 1 4 29 3
4292 1 4 29 5
4293 1 4 29 9
4294 3 4 29 48
4295 3 4 29 50
4296 3 4 29 33
4297 3 4 29 35
4298 5 4 29 74
4299 5 4 29 53
4300 5 4 29 55
4301 5 4 29 59
4302 3 49 29 28
4303 3 49 29 30
4304 6 49 29 34
4305 3 49 29 54
4306 1 49 29 24
4307 3 49 29 3
4308 3 49 29 5
4309 5 49 29 9
4310 1 49 29 48
4311 1 49 29 50
4312 5 49 29 33
4313 5 49 29 35
4314 1 49 29 74
4315 3 49 29 53
4316 3 49 29 55
4317 5 49 29 59
4318 6 28 29 30
4319 3 28 29 34
4320 3 28 29 54
4321 3 28 29 24
4322 1 28 29 3
4323 5 28 29 5
4324 3 28 29 9
4325 1 28 29 48
4326 5 28 29 50
4327 1 28 29 33
4328 5 28 29 35
4329 3 28 29 74
4330 1 28 29 53
4331 5 28 29 55
4332 3 28 29 59
4333 3 30 29 34
4334 3 30 29 54
4335 3 30 29 24
4336 5 30 29 3
4337 1 30 29 5
4338 3 30 29 9
4339 5 30 29 48
4340 1 30 29 50
4341 5 30 29 33
4342 1 30 29 35
4343 3 30 29 74
4344 5 30 29 53
4345 1 30 29 55
4346 3 30 29 59
4347 3 34 29 54
4348 5 34 29 24
4349 3 34 29 3
4350 3 34 29 5
4351 1 34 29 9
4352 5 34 29 48
4353 5 34 29 50
4354 1 34 29 33
4355 1 34 29 35
4356 5 34 29 74
4357 3 34 29 53
4358 3 34 29 55
4359 1 34 29 59
4360 5 54 29 24
4361 5 54 29 3
4362 5 54 29 5
4363 5 54 29 9
4364 3 54 29 48
4365 3 54 29 50
4366 3 54 29 33
4367 3 54 29 35
4368 1 54 29 74
4369 1 54 29 53
4370 1 54 29 55
4371 1 54 29 59
4372 2 24 29 3
4373 2 24 29 5
4374 3 24 29 9
4375 2 24 29 48
4376 2 24 29 50
4377 4 24 29 33
4378 4 24 29 35
4379 3 24 29 74
4380 4 24 29 53
4381 4 24 29 55
4382 6 24 29 59
4383 3 3 29 5
4384 2 3 29 9
4385 2 3 29 48
4386 4 3 29 50
4387 2 3 29 33
4388 4 3 29 35
4389 4 3 29 74
4390 3 3 29 53
4391 6 3 29 55
4392 4 3 29 59
4393 2 5 29 9
4394 4 5 29 48
4395 2 5 29 50
4396 4 5 29 33
4397 2 5 29 35
4398 4 5 29 74
4399 6 5 29 53
4400 3 5 29 55
4401 4 5 29 59
4402 4 9 29 48
4403 4 9 29 50
4404 2 9 29 33
4405 2 9 29 35
4406 6 9 29 74
4407 4 9 29 53
4408 4 9 29 55
4409 3 9 29 59
4410 3 48 29 50
4411 3 48 29 33
4412 6 48 29 35
4413 2 48 29 74
4414 2 48 29 53
4415 4 48 29 55
4416 4 48 29 59
4417 6 50 29 33
4418 3 50 29 35
4419 2 50 29 74
4420 4 50 29 53
4421 2 50 29 55
4422 4 50 29 59
4423 3 33 29 35
4424 4 33 29 74
4425 2 33 29 53
4426 4 33 29 55
4427 2 33 29 59
4428 4 35 29 74
4429 4 35 29 53
4430 2 35 29 55
4431 2 35 29 59
4432 2 74 29 53
4433 2 74 29 55
4434 3 74 29 59
4435 3 53 29 55
4436 2 53 29 59
4437 2 55 29 59
4438 3 5 30 50
4439 3 5 30 29
4440 3 5 30 26
4441 3 5 30 35
4442 6 5 30 55
4443 1 5 30 25
4444 1 5 30 4
4445 1 5 30 1
4446 1 5 30 10
4447 3 5 30 49
4448 3 5 30 46
4449 3 5 30 34
4450 3 5 30 31
4451 5 5 30 75
4452 5 5 30 54
4453 5 5 30 51
4454 5 5 30 60
4455 3 50 30 29
4456 3 50 30 26
4457 6 50 30 35
4458 3 50 30 55
4459 1 50 30 25
4460 3 50 30 4
4461 3 50 30 1
4462 5 50 30 10
4463 1 50 30 49
4464 1 50 30 46
4465 5 50 30 34
4466 5 50 30 31
4467 1 50 30 75
4468 3 50 30 54
4469 3 50 30 51
4470 5 50 30 60
4471 6 29 30 26
4472 3 29 30 35
4473 3 29 30 55
4474 3 29 30 25
4475 1 29 30 4
4476 5 29 30 1
4477 3 29 30 10
4478 1 29 30 49
4479 5 29 30 46
4480 1 29 30 34
4481 5 29 30 31
4482 3 29 30 75
4483 1 29 30 54
4484 5 29 30 51
4485 3 29 30 60
4486 3 26 30 35
4487 3 26 30 55
4488 3 26 30 25
4489 5 26 30 4
4490 1 26 30 1
4491 3 26 30 10
4492 5 26 30 49
4493 1 26 30 46
4494 5 26 30 34
4495 1 26 30 31
4496 3 26 30 75
4497 5 26 30 54
4498 1 26 30 51
4499 3 26 30 60
4500 3 35 30 55
4501 5 35 30 25
4502 3 35 30 4
4503 3 35 30 1
4504 1 35 30 10
4505 5 35 30 49
4506 5 35 30 46
4507 1 35 30 34
4508 1 35 30 31
4509 5 35 30 75
4510 3 35 30 54
4511 3 35 30 51
4512 1 35 30 60
4513 5 55 30 25
4514 5 55 30 4
4515 5 55 30 1
4516 5 55 30 10
4517 3 55 30 49
4518 3 55 30 46
4519 3 55 30 34
4520 3 55 30 31
4521 1 55 30 75
4522 1 55 30 54
4523 1 55 30 51
4524 1 55 30 60
4525 2 25 30 4
4526 2 25 30 1
4527 3 25 30 10
4528 2 25 30 49
4529 2 25 30 46
4530 4 25 30 34
4531 4 25 30 31
4532 3 25 30 75
4533 4 25 30 54
4534 4 25 30 51
4535 6 25 30 60
4536 3 4 30 1
4537 2 4 30 10
4538 2 4 30 49
4539 4 4 30 46
4540 2 4 30 34
4541 4 4 30 31
4542 4 4 30 75
4543 3 4 30 54
4544 6 4 30 51
4545 4 4 30 60
4546 2 1 30 10
4547 4 1 30 49
4548 2 1 30 46
4549 4 1 30 34
4550 2 1 30 31
4551 4 1 30 75
4552 6 1 30 54
4553 3 1 30 51
4554 4 1 30 60
4555 4 10 30 49
4556 4 10 30 46
4557 2 10 30 34
4558 2 10 30 31
4559 6 10 30 75
4560 4 10 30 54
4561 4 10 30 51
4562 3 10 30 60
4563 3 49 30 46
4564 3 49 30 34
4565 6 49 30 31
4566 2 49 30 75
4567 2 49 30 54
4568 4 49 30 51
4569 4 49 30 60
4570 6 46 30 34
4571 3 46 30 31
4572 2 46 30 75
4573 4 46 30 54
4574 2 46 30 51
4575 4 46 30 60
4576 3 34 30 31
4577 4 34 30 75
4578 2 34 30 54
4579 4 34 30 51
4580 2 34 30 60
4581 4 31 30 75
4582 4 31 30 54
4583 2 31 30 51
4584 2 31 30 60
4585 2 75 30 54
4586 2 75 30 51
4587 3 75 30 60
4588 3 54 30 51
4589 2 54 30 60
4590 2 51 30 60
4591 3 6 31 26
4592 3 6 31 35
4593 3 6 31 32
4594 3 6 31 36
4595 6 6 31 56
4596 1 6 31 1
4597 1 6 31 10
4598 1 6 31 7
4599 1 6 31 11
4600 3 6 31 30
4601 3 6 31 27
4602 3 6 31 40
4603 3 6 31 37
4604 5 6 31 51
4605 5 6 31 60
4606 5 6 31 57
4607 5 6 31 61
4608 3 26 31 35
4609 3 26 31 32
4610 6 26 31 36
4611 3 26 31 56
4612 1 26 31 1
4613 3 26 31 10
4614 3 26 31 7
4615 5 26 31 11
4616 1 26 31 30
4617 1 26 31 27
4618 5 26 31 40
4619 5 26 31 37
4620 1 26 31 51
4621 3 26 31 60
4622 3 26 31 57
4623 5 26 31 61
4624 6 35 31 32
4625 3 35 31 36
4626 3 35 31 56
4627 3 35 31 1
4628 1 35 31 10
4629 5 35 31 7
4630 3 35 31 11
4631 1 35 31 30
4632 5 35 31 27
4633 1 35 31 40
4634 5 35 31 37
4635 3 35 31 51
4636 1 35 31 60
4637 5 35 31 57
4638 3 35 31 61
4639 3 32 31 36
4640 3 32 31 56
4641 3 32 31 1
4642 5 32 31 10
4643 1 32 31 7
4644 3 32 31 11
4645 5 32 31 30
4646 1 32 31 27
4647 5 32 31 40
4648 1 32 31 37
4649 3 32 31 51
4650 5 32 31 60
4651 1 32 31 57
4652 3 32 31 61
4653 3 36 31 56
4654 5 36 31 1
4655 3 36 31 10
4656 3 36 31 7
4657 1 36 31 11
4658 5 36 31 30
4659 5 36 31 27
4660 1 36 31 40
4661 1 36 31 37
4662 5 36 31 51
4663 3 36 31 60
4664 3 36 31 57
4665 1 36 31 61
4666 5 56 31 1
4667 5 56 31 10
4668 5 56 31 7
4669 5 56 31 11
4670 3 56 31 30
4671 3 56 31 27
4672 3 56 31 40
4673 3 56 31 37
4674 1 56 31 51
4675 1 56 31 60
4676 1 56 31 57
4677 1 56 31 61
4678 2 1 31 10
4679 2 1 31 7
4680 3 1 31 11
4681 2 1 31 30
4682 2 1 31 27
4683 4 1 31 40
4684 4 1 31 37
4685 3 1 31 51
4686 4 1 31 60
4687 4 1 31 57
4688 6 1 31 61
4689 3 10 31 7
4690 2 10 31 11
4691 2 10 31 30
4692 4 10 31 27
4693 2 10 31 40
4694 4 10 31 37
4695 4 10 31 51
4696 3 10 31 60
4697 6 10 31 57
4698 4 10 31 61
4699 2 7 31 11
4700 4 7 31 30
4701 2 7 31 27
4702 4 7 31 40
4703 2 7 31 37
4704 4 7 31 51
4705 6 7 31 60
4706 3 7 31 57
4707 4 7 31 61
4708 4 11 31 30
4709 4 11 31 27
4710 2 11 31 40
4711 2 11 31 37
4712 6 11 31 51
4713 4 11 31 60
4714 4 11 31 57
4715 3 11 31 61
4716 3 30 31 27
4717 3 30 31 40
4718 6 30 31 37
4719 2 30 31 51
4720 2 30 31 60
4721 4 30 31 57
4722 4 30 31 61
4723 6 27 31 40
4724 3 27 31 37
4725 2 27 31 51
4726 4 27 31 60
4727 2 27 31 57
4728 4 27 31 61
4729 3 40 31 37
4730 4 40 31 51
4731 2 40 31 60
4732 4 40 31 57
4733 2 40 31 61
4734 4 37 31 51
4735 4 37 31 60
4736 2 37 31 57
4737 2 37 31 61
4738 2 51 31 60
4739 2 51 31 57
4740 3 51 31 61
4741 3 60 31 57
4742 2 60 31 61
4743 2 57 31 61
4744 3 7 32 27
4745 3 7 32 31
4746 3 7 32 33
4747 3 7 32 37
4748 6 7 32 57
4749 1 7 32 2
4750 1 7 32 6
4751 1 7 32 8
4752 1 7 32 12
4753 3 7 32 26
4754 3 7 32 28
4755 3 7 32 36
4756 3 7 32 38
4757 5 7 32 52
4758 5 7 32 56
4759 5 7 32 58
4760 5 7 32 62
4761 3 27 32 31
4762 3 27 32 33
4763 6 27 32 37
4764 3 27 32 57
4765 1 27 32 2
4766 3 27 32 6
4767 3 27 32 8
4768 5 27 32 12
4769 1 27 32 26
4770 1 27 32 28
4771 5 27 32 36
4772 5 27 32 38
4773 1 27 32 52
4774 3 27 32 56
4775 3 27 32 58
4776 5 27 32 62
4777 6 31 32 33
4778 3 31 32 37
4779 3 31 32 57
4780 3 31 32 2
4781 1 31 32 6
4782 5 31 32 8
4783 3 31 32 12
4784 1 31 32 26
4785 5 31 32 28
4786 1 31 32 36
4787 5 31 32 38
4788 3 31 32 52
4789 1 31 32 56
4790 5 31 32 58
4791 3 31 32 62
4792 3 33 32 37
4793 3 33 32 57
4794 3 33 32 2
4795 5 33 32 6
4796 1 33 32 8
4797 3 33 32 12
4798 5 33 32 26
4799 1 33 32 28
4800 5 33 32 36
4801 1 33 32 38
4802 3 33 32 52
4803 5 33 32 56
4804 1 33 32 58
4805 3 33 32 62
4806 3 37 32 57
4807 5 37 32 2
4808 3 37 32 6
4809 3 37 32 8
4810 1 37 32 12
4811 5 37 32 26
4812 5 37 32 28
4813 1 37 32 36
4814 1 37 32 38
4815 5 37 32 52
4816 3 37 32 56
4817 3 37 32 58
4818 1 37 32 62
4819 5 57 32 2
4820 5 57 32 6
4821 5 57 32 8
4822 5 57 32 12
4823 3 57 32 26
4824 3 57 32 28
4825 3 57 32 36
4826 3 57 32 38
4827 1 57 32 52
4828 1 57 32 56
4829 1 57 32 58
4830 1 57 32 62
4831 2 2 32 6
4832 2 2 32 8
4833 3 2 32 12
4834 2 2 32 26
4835 2 2 32 28
4836 4 2 32 36
4837 4 2 32 38
4838 3 2 32 52
4839 4 2 32 56
4840 4 2 32 58
4841 6 2 32 62
4842 3 6 32 8
4843 2 6 32 12
4844 2 6 32 26
4845 4 6 32 28
4846 2 6 32 36
4847 4 6 32 38
4848 4 6 32 52
4849 3 6 32 56
4850 6 6 32 58
4851 4 6 32 62
4852 2 8 32 12
4853 4 8 32 26
4854 2 8 32 28
4855 4 8 32 36
4856 2 8 32 38
4857 4 8 32 52
4858 6 8 32 56
4859 3 8 32 58
4860 4 8 32 62
4861 4 12 32 26
4862 4 12 32 28
4863 2 12 32 36
4864 2 12 32 38
4865 6 12 32 52
4866 4 12 32 56
4867 4 12 32 58
4868 3 12 32 62
4869 3 26 32 28
4870 3 26 32 36
4871 6 26 32 38
4872 2 26 32 52
4873 2 26 32 56
4874 4 26 32 58
4875 4 26 32 62
4876 6 28 32 36
4877 3 28 32 38
4878 2 28 32 52
4879 4 28 32 56
4880 2 28 32 58
4881 4 28 32 62
4882 3 36 32 38
4883 4 36 32 52
4884 2 36 32 56
4885 4 36 32 58
4886 2 36 32 62
4887 4 38 32 52
4888 4 38 32 56
4889 2 38 32 58
4890 2 38 32 62
4891 2 52 32 56
4892 2 52 32 58
4893 3 52 32 62
4894 3 56 32 58
4895 2 56 32 62
4896 2 58 32 62
4897 3 8 33 28
4898 3 8 33 32
4899 3 8 33 34
4900 3 8 33 38
4901 6 8 33 58
4902 1 8 33 3
4903 1 8 33 7
4904 1 8 33 9
4905 1 8 33 13
4906 3 8 33 27
4907 3 8 33 29
4908 3 8 33 37
4909 3 8 33 39
4910 5 8 33 53
4911 5 8 33 57
4912 5 8 33 59
4913 5 8 33 63
4914 3 28 33 32
4915 3 28 33 34
4916 6 28 33 38
4917 3 28 33 58
4918 1 28 33 3
4919 3 28 33 7
4920 3 28 33 9
4921 5 28 33 13
4922 1 28 33 27
4923 1 28 33 29
4924 5 28 33 37
4925 5 28 33 39
4926 1 28 33 53
4927 3 28 33 57
4928 3 28 33 59
4929 5 28 33 63
4930 6 32 33 34
4931 3 32 33 38
4932 3 32 33 58
4933 3 32 33 3
4934 1 32 33 7
4935 5 32 33 9
4936 3 32 33 13
4937 1 32 33 27
4938 5 32 33 29
4939 1 32 33 37
4940 5 32 33 39
4941 3 32 33 53
4942 1 32 33 57
4943 5 32 33 59
4944 3 32 33 63
4945 3 34 33 38
4946 3 34 33 58
4947 3 34 33 3
4948 5 34 33 7
4949 1 34 33 9
4950 3 34 33 13
4951 5 34 33 27
4952 1 34 33 29
4953 5 34 33 37
4954 1 34 33 39
4955 3 34 33 53
4956 5 34 33 57
4957 1 34 33 59
4958 3 34 33 63
4959 3 38 33 58
4960 5 38 33 3
4961 3 38 33 7
4962 3 38 33 9
4963 1 38 33 13
4964 5 38 33 27
4965 5 38 33 29
4966 1 38 33 37
4967 1 38 33 39
4968 5 38 33 53
4969 3 38 33 57
4970 3 38 33 59
4971 1 38 33 63
4972 5 58 33 3
4973 5 58 33 7
4974 5 58 33 9
4975 5 58 33 13
4976 3 58 33 27
4977 3 58 33 29
4978 3 58 33 37
4979 3 58 33 39
4980 1 58 33 53
4981 1 58 33 57
4982 1 58 33 59
4983 1 58 33 63
4984 2 3 33 7
4985 2 3 33 9
4986 3 3 33 13
4987 2 3 33 27
4988 2 3 33 29
4989 4 3 33 37
4990 4 3 33 39
4991 3 3 33 53
4992 4 3 33 57
4993 4 3 33 59
4994 6 3 33 63
4995 3 7 33 9
4996 2 7 33 13
4997 2 7 33 27
4998 4 7 33 29
4999 2 7 33 37
5000 4 7 33 39
5001 4 7 33 53
5002 3 7 33 57
5003 6 7 33 59
5004 4 7 33 63
5005 2 9 33 13
5006 4 9 33 27
5007 2 9 33 29
5008 4 9 33 37
5009 2 9 33 39
5010 4 9 33 53
5011 6 9 33 57
5012 3 9 33 59
5013 4 9 33 63
5014 4 13 33 27
5015 4 13 33 29
5016 2 13 33 37
5017 2 13 33 39
5018 6 13 33 53
5019 4 13 33 57
5020 4 13 33 59
5021 3 13 33 63
5022 3 27 33 29
5023 3 27 33 37
5024 6 27 33 39
5025 2 27 33 53
5026 2 27 33 57
5027 4 27 33 59
5028 4 27 33 63
5029 6 29 33 37
5030 3 29 33 39
5031 2 29 33 53
5032 4 29 33 57
5033 2 29 33 59
5034 4 29 33 63
5035 3 37 33 39
5036 4 37 33 53
5037 2 37 33 57
5038 4 37 33 59
5039 2 37 33 63
5040 4 39 33 53
5041 4 39 33 57
5042 2 39 33 59
5043 2 39 33 63
5044 2 53 33 57
5045 2 53 33 59
5046 3 53 33 63
5047 3 57 33 59
5048 2 57 33 63
5049 2 59 33 63
5050 3 9 34 29
5051 3 9 34 33
5052 3 9 34 35
5053 3 9 34 39
5054 6 9 34 59
5055 1 9 34 4
5056 1 9 34 8
5057 1 9 34 10
5058 1 9 34 14
5059 3 9 34 28
5060 3 9 34 30
5061 3 9 34 38
5062 3 9 34 40
5063 5 9 34 54
5064 5 9 34 58
5065 5 9 34 60
5066 5 9 34 64
5067 3 29 34 33
5068 3 29 34 35
5069 6 29 34 39
5070 3 29 34 59
5071 1 29 34 4
5072 3 29 34 8
5073 3 29 34 10
5074 5 29 34 14
5075 1 29 34 28
5076 1 29 34 30
5077 5 29 34 38
5078 5 29 34 40
5079 1 29 34 54
5080 3 29 34 58
5081 3 29 34 60
5082 5 29 34 64
5083 6 33 34 35
5084 3 33 34 39
5085 3 33 34 59
5086 3 33 34 4
5087 1 33 34 8
5088 5 33 34 10
5089 3 33 34 14
5090 1 33 34 28
5091 5 33 34 30
5092 1 33 34 38
5093 5 33 34 40
5094 3 33 34 54
5095 1 33 34 58
5096 5 33 34 60
5097 3 33 34 64
5098 3 35 34 39
5099 3 35 34 59
5100 3 35 34 4
5101 5 35 34 8
5102 1 35 34 10
5103 3 35 34 14
5104 5 35 34 28
5105 1 35 34 30
5106 5 35 34 38
5107 1 35 34 40
5108 3 35 34 54
5109 5 35 34 58
5110 1 35 34 60
5111 3 35 34 64
5112 3 39 34 59
5113 5 39 34 4
5114 3 39 34 8
5115 3 39 34 10
5116 1 39 34 14
5117 5 39 34 28
5118 5 39 34 30
5119 1 39 34 38
5120 1 39 34 40
5121 5 39 34 54
5122 3 39 34 58
5123 3 39 34 60
5124 1 39 34 64
5125 5 59 34 4
5126 5 59 34 8
5127 5 59 34 10
5128 5 59 34 14
5129 3 59 34 28
5130 3 59 34 30
5131 3 59 34 38
5132 3 59 34 40
5133 1 59 34 54
5134 1 59 34 58
5135 1 59 34 60
5136 1 59 34 64
5137 2 4 34 8
5138 2 4 34 10
5139 3 4 34 14
5140 2 4 34 28
5141 2 4 34 30
5142 4 4 34 38
5143 4 4 34 40
5144 3 4 34 54
5145 4 4 34 58
5146 4 4 34 60
5147 6 4 34 64
5148 3 8 34 10
5149 2 8 34 14
5150 2 8 34 28
5151 4 8 34 30
5152 2 8 34 38
5153 4 8 34 40
5154 4 8 34 54
5155 3 8 34 58
5156 6 8 34 60
5157 4 8 34 64
5158 2 10 34 14
5159 4 10 34 28
5160 2 10 34 30
5161 4 10 34 38
5162 2 10 34 40
5163 4 10 34 54
5164 6 10 34 58
5165 3 10 34 60
5166 4 10 34 64
5167 4 14 34 28
5168 4 14 34 30
5169 2 14 34 38
5170 2 14 34 40
5171 6 14 34 54
5172 4 14 34 58
5173 4 14 34 60
5174 3 14 34 64
5175 3 28 34 30
5176 3 28 34 38
5177 6 28 34 40
5178 2 28 34 54
5179 2 28 34 58
5180 4 28 34 60
5181 4 28 34 64
5182 6 30 34 38
5183 3 30 34 40
5184 2 30 34 54
5185 4 30 34 58
5186 2 30 34 60
5187 4 30 34 64
5188 3 38 34 40
5189 4 38 34 54
5190 2 38 34 58
5191 4 38 34 60
5192 2 38 34 64
5193 4 40 34 54
5194 4 40 34 58
5195 2 40 34 60
5196 2 40 34 64
5197 2 54 34 58
5198 2 54 34 60
5199 3 54 34 64
5200 3 58 34 60
5201 2 58 34 64
5202 2 60 34 64
5203 3 10 35 30
5204 3 10 35 34
5205 3 10 35 31
5206 3 10 35 40
5207 6 10 35 60
5208 1 10 35 5
5209 1 10 35 9
5210 1 10 35 6
5211 1 10 35 15
5212 3 10 35 29
5213 3 10 35 26
5214 3 10 35 39
5215 3 10 35 36
5216 5 10 35 55
5217 5 10 35 59
5218 5 10 35 56
5219 5 10 35 65
5220 3 30 35 34
5221 3 30 35 31
5222 6 30 35 40
5223 3 30 35 60
5224 1 30 35 5
5225 3 30 35 9
5226 3 30 35 6
5227 5 30 35 15
5228 1 30 35 29
5229 1 30 35 26
5230 5 30 35 39
5231 5 30 35 36
5232 1 30 35 55
5233 3 30 35 59
5234 3 30 35 56
5235 5 30 35 65
5236 6 34 35 31
5237 3 34 35 40
5238 3 34 35 60
5239 3 34 35 5
5240 1 34 35 9
5241 5 34 35 6
5242 3 34 35 15
5243 1 34 35 29
5244 5 34 35 26
5245 1 34 35 39
5246 5 34 35 36
5247 3 34 35 55
5248 1 34 35 59
5249 5 34 35 56
5250 3 34 35 65
5251 3 31 35 40
5252 3 31 35 60
5253 3 31 35 5
5254 5 31 35 9
5255 1 31 35 6
5256 3 31 35 15
5257 5 31 35 29
5258 1 31 35 26
5259 5 31 35 39
5260 1 31 35 36
5261 3 31 35 55
5262 5 31 35 59
5263 1 31 35 56
5264 3 31 35 65
5265 3 40 35 60
5266 5 40 35 5
5267 3 40 35 9
5268 3 40 35 6
5269 1 40 35 15
5270 5 40 35 29
5271 5 40 35 26
5272 1 40 35 39
5273 1 40 35 36
5274 5 40 35 55
5275 3 40 35 59
5276 3 40 35 56
5277 1 40 35 65
5278 5 60 35 5
5279 5 60 35 9
5280 5 60 35 6
5281 5 60 35 15
5282 3 60 35 29
5283 3 60 35 26
5284 3 60 35 39
5285 3 60 35 36
5286 1 60 35 55
5287 1 60 35 59
5288 1 60 35 56
5289 1 60 35 65
5290 2 5 35 9
5291 2 5 35 6
5292 3 5 35 15
5293 2 5 35 29
5294 2 5 35 26
5295 4 5 35 39
5296 4 5 35 36
5297 3 5 35 55
5298 4 5 35 59
5299 4 5 35 56
5300 6 5 35 65
5301 3 9 35 6
5302 2 9 35 15
5303 2 9 35 29
5304 4 9 35 26
5305 2 9 35 39
5306 4 9 35 36
5307 4 9 35 55
5308 3 9 35 59
5309 6 9 35 56
5310 4 9 35 65
5311 2 6 35 15
5312 4 6 35 29
5313 2 6 35 26
5314 4 6 35 39
5315 2 6 35 36
5316 4 6 35 55
5317 6 6 35 59
5318 3 6 35 56
5319 4 6 35 65
5320 4 15 35 29
5321 4 15 35 26
5322 2 15 35 39
5323 2 15 35 36
5324 6 15 35 55
5325 4 15 35 59
5326 4 15 35 56
5327 3 15 35 65
5328 3 29 35 26
5329 3 29 35 39
5330 6 29 35 36
5331 2 29 35 55
5332 2 29 35 59
5333 4 29 35 56
5334 4 29 35 65
5335 6 26 35 39
5336 3 26 35 36
5337 2 26 35 55
5338 4 26 35 59
5339 2 26 35 56
5340 4 26 35 65
5341 3 39 35 36
5342 4 39 35 55
5343 2 39 35 59
5344 4 39 35 56
5345 2 39 35 65
5346 4 36 35 55
5347 4 36 35 59
5348 2 36 35 56
5349 2 36 35 65
5350 2 55 35 59
5351 2 55 35 56
5352 3 55 35 65
5353 3 59 35 56
5354 2 59 35 65
5355 2 56 35 65
5356 3 11 36 31
5357 3 11 36 40
5358 3 11 36 37
5359 3 11 36 41
5360 6 11 36 61
5361 1 11 36 6
5362 1 11 36 15
5363 1 11 36 12
5364 1 11 36 16
5365 3 11 36 35
5366 3 11 36 32
5367 3 11 36 45
5368 3 11 36 42
5369 5 11 36 56
5370 5 11 36 65
5371 5 11 36 62
5372 5 11 36 66
5373 3 31 36 40
5374 3 31 36 37
5375 6 31 36 41
5376 3 31 36 61
5377 1 31 36 6
5378 3 31 36 15
5379 3 31 36 12
5380 5 31 36 16
5381 1 31 36 35
5382 1 31 36 32
5383 5 31 36 45
5384 5 31 36 42
5385 1 31 36 56
5386 3 31 36 65
5387 3 31 36 62
5388 5 31 36 66
5389 6 40 36 37
5390 3 40 36 41
5391 3 40 36 61
5392 3 40 36 6
5393 1 40 36 15
5394 5 40 36 12
5395 3 40 36 16
5396 1 40 36 35
5397 5 40 36 32
5398 1 40 36 45
5399 5 40 36 42
5400 3 40 36 56
5401 1 40 36 65
5402 5 40 36 62
5403 3 40 36 66
5404 3 37 36 41
5405 3 37 36 61
5406 3 37 36 6
5407 5 37 36 15
5408 1 37 36 12
5409 3 37 36 16
5410 5 37 36 35
5411 1 37 36 32
5412 5 37 36 45
5413 1 37 36 42
5414 3 37 36 56
5415 5 37 36 65
5416 1 37 36 62
5417 3 37 36 66
5418 3 41 36 61
5419 5 41 36 6
5420 3 41 36 15
5421 3 41 36 12
5422 1 41 36 16
5423 5 41 36 35
5424 5 41 36 32
5425 1 41 36 45
5426 1 41 36 42
5427 5 41 36 56
5428 3 41 36 65
5429 3 41 36 62
5430 1 41 36 66
5431 5 61 36 6
5432 5 61 36 15
5433 5 61 36 12
5434 5 61 36 16
5435 3 61 36 35
5436 3 61 36 32
5437 3 61 36 45
5438 3 61 36 42
5439 1 61 36 56
5440 1 61 36 65
5441 1 61 36 62
5442 1 61 36 66
5443 2 6 36 15
5444 2 6 36 12
5445 3 6 36 16
5446 2 6 36 35
5447 2 6 36 32
5448 4 6 36 45
5449 4 6 36 42
5450 3 6 36 56
5451 4 6 36 65
5452 4 6 36 62
5453 6 6 36 66
5454 3 15 36 12
5455 2 15 36 16
5456 2 15 36 35
5457 4 15 36 32
5458 2 15 36 45
5459 4 15 36 42
5460 4 15 36 56
5461 3 15 36 65
5462 6 15 36 62
5463 4 15 36 66
5464 2 12 36 16
5465 4 12 36 35
5466 2 12 36 32
5467 4 12 36 45
5468 2 12 36 42
5469 4 12 36 56
5470 6 12 36 65
5471 3 12 36 62
5472 4 12 36 66
5473 4 16 36 35
5474 4 16 36 32
5475 2 16 36 45
5476 2 16 36 42
5477 6 16 36 56
5478 4 16 36 65
5479 4 16 36 62
5480 3 16 36 66
5481 3 35 36 32
5482 3 35 36 45
5483 6 35 36 42
5484 2 35 36 56
5485 2 35 36 65
5486 4 35 36 62
5487 4 35 36 66
5488 6 32 36 45
5489 3 32 36 42
5490 2 32 36 56
5491 4 32 36 65
5492 2 32 36 62
5493 4 32 36 66
5494 3 45 36 42
5495 4 45 36 56
5496 2 45 36 65
5497 4 45 36 62
5498 2 45 36 66
5499 4 42 36 56
5500 4 42 36 65
5501 2 42 36 62
5502 2 42 36 66
5503 2 56 36 65
5504 2 56 36 62
5505 3 56 36 66
5506 3 65 36 62
5507 2 65 36 66
5508 2 62 36 66
5509 3 12 37 32
5510 3 12 37 36
5511 3 12 37 38
5512 3 12 37 42
5513 6 12 37 62
5514 1 12 37 7
5515 1 12 37 11
5516 1 12 37 13
5517 1 12 37 17
5518 3 12 37 31
5519 3 12 37 33
5520 3 12 37 41
5521 3 12 37 43
5522 5 12 37 57
5523 5 12 37 61
5524 5 12 37 63
5525 5 12 37 67
5526 3 32 37 36
5527 3 32 37 38
5528 6 32 37 42
5529 3 32 37 62
5530 1 32 37 7
5531 3 32 37 11
5532 3 32 37 13
5533 5 32 37 17
5534 1 32 37 31
5535 1 32 37 33
5536 5 32 37 41
5537 5 32 37 43
5538 1 32 37 57
5539 3 32 37 61
5540 3 32 37 63
5541 5 32 37 67
5542 6 36 37 38
5543 3 36 37 42
5544 3 36 37 62
5545 3 36 37 7
5546 1 36 37 11
5547 5 36 37 13
5548 3 36 37 17
5549 1 36 37 31
5550 5 36 37 33
5551 1 36 37 41
5552 5 36 37 43
5553 3 36 37 57
5554 1 36 37 61
5555 5 36 37 63
5556 3 36 37 67
5557 3 38 37 42
5558 3 38 37 62
5559 3 38 37 7
5560 5 38 37 11
5561 1 38 37 13
5562 3 38 37 17
5563 5 38 37 31
5564 1 38 37 33
5565 5 38 37 41
5566 1 38 37 43
5567 3 38 37 57
5568 5 38 37 61
5569 1 38 37 63
5570 3 38 37 67
5571 3 42 37 62
5572 5 42 37 7
5573 3 42 37 11
5574 3 42 37 13
5575 1 42 37 17
5576 5 42 37 31
5577 5 42 37 33
5578 1 42 37 41
5579 1 42 37 43
5580 5 42 37 57
5581 3 42 37 61
5582 3 42 37 63
5583 1 42 37 67
5584 5 62 37 7
5585 5 62 37 11
5586 5 62 37 13
5587 5 62 37 17
5588 3 62 37 31
5589 3 62 37 33
5590 3 62 37 41
5591 3 62 37 43
5592 1 62 37 57
5593 1 62 37 61
5594 1 62 37 63
5595 1 62 37 67
5596 2 7 37 11
5597 2 7 37 13
5598 3 7 37 17
5599 2 7 37 31
5600 2 7 37 33
5601 4 7 37 41
5602 4 7 37 43
5603 3 7 37 57
5604 4 7 37 61
5605 4 7 37 63
5606 6 7 37 67
5607 3 11 37 13
5608 2 11 37 17
5609 2 11 37 31
5610 4 11 37 33
5611 2 11 37 41
5612 4 11 37 43
5613 4 11 37 57
5614 3 11 37 61
5615 6 11 37 63
5616 4 11 37 67
5617 2 13 37 17
5618 4 13 37 31
5619 2 13 37 33
5620 4 13 37 41
5621 2 13 37 43
5622 4 13 37 57
5623 6 13 37 61
5624 3 13 37 63
5625 4 13 37 67
5626 4 17 37 31
5627 4 17 37 33
5628 2 17 37 41
5629 2 17 37 43
5630 6 17 37 57
5631 4 17 37 61
5632 4 17 37 63
5633 3 17 37 67
5634 3 31 37 33
5635 3 31 37 41
5636 6 31 37 43
5637 2 31 37 57
5638 2 31 37 61
5639 4 31 37 63
5640 4 31 37 67
5641 6 33 37 41
5642 3 33 37 43
5643 2 33 37 57
5644 4 33 37 61
5645 2 33 37 63
5646 4 33 37 67
5647 3 41 37 43
5648 4 41 37 57
5649 2 41 37 61
5650 4 41 37 63
5651 2 41 37 67
5652 4 43 37 57
5653 4 43 37 61
5654 2 43 37 63
5655 2 43 37 67
5656 2 57 37 61
5657 2 57 37 63
5658 3 57 37 67
5659 3 61 37 63
5660 2 61 37 67
5661 2 63 37 67
5662 3 13 38 33
5663 3 13 38 37
5664 3 13 38 39
5665 3 13 38 43
5666 6 13 38 63
5667 1 13 38 8
5668 1 13 38 12
5669 1 13 38 14
5670 1 13 38 18
5671 3 13 38 32
5672 3 13 38 34
5673 3 13 38 42
5674 3 13 38 44
5675 5 13 38 58
5676 5 13 38 62
5677 5 13 38 64
5678 5 13 38 68
5679 3 33 38 37
5680 3 33 38 39
5681 6 33 38 43
5682 3 33 38 63
5683 1 33 38 8
5684 3 33 38 12
5685 3 33 38 14
5686 5 33 38 18
5687 1 33 38 32
5688 1 33 38 34
5689 5 33 38 42
5690 5 33 38 44
5691 1 33 38 58
5692 3 33 38 62
5693 3 33 38 64
5694 5 33 38 68
5695 6 37 38 39
5696 3 37 38 43
5697 3 37 38 63
5698 3 37 38 8
5699 1 37 38 12
5700 5 37 38 14
5701 3 37 38 18
5702 1 37 38 32
5703 5 37 38 34
5704 1 37 38 42
5705 5 37 38 44
5706 3 37 38 58
5707 1 37 38 62
5708 5 37 38 64
5709 3 37 38 68
5710 3 39 38 43
5711 3 39 38 63
5712 3 39 38 8
5713 5 39 38 12
5714 1 39 38 14
5715 3 39 38 18
5716 5 39 38 32
5717 1 39 38 34
5718 5 39 38 42
5719 1 39 38 44
5720 3 39 38 58
5721 5 39 38 62
5722 1 39 38 64
5723 3 39 38 68
5724 3 43 38 63
5725 5 43 38 8
5726 3 43 38 12
5727 3 43 38 14
5728 1 43 38 18
5729 5 43 38 32
5730 5 43 38 34
5731 1 43 38 42
5732 1 43 38 44
5733 5 43 38 58
5734 3 43 38 62
5735 3 43 38 64
5736 1 43 38 68
5737 5 63 38 8
5738 5 63 38 12
5739 5 63 38 14
5740 5 63 38 18
5741 3 63 38 32
5742 3 63 38 34
5743 3 63 38 42
5744 3 63 38 44
5745 1 63 38 58
5746 1 63 38 62
5747 1 63 38 64
5748 1 63 38 68
5749 2 8 38 12
5750 2 8 38 14
5751 3 8 38 18
5752 2 8 38 32
5753 2 8 38 34
5754 4 8 38 42
5755 4 8 38 44
5756 3 8 38 58
5757 4 8 38 62
5758 4 8 38 64
5759 6 8 38 68
5760 3 12 38 14
5761 2 12 38 18
5762 2 12 38 32
5763 4 12 38 34
5764 2 12 38 42
5765 4 12 38 44
5766 4 12 38 58
5767 3 12 38 62
5768 6 12 38 64
5769 4 12 38 68
5770 2 14 38 18
5771 4 14 38 32
5772 2 14 38 34
5773 4 14 38 42
5774 2 14 38 44
5775 4 14 38 58
5776 6 14 38 62
5777 3 14 38 64
5778 4 14 38 68
5779 4 18 38 32
5780 4 18 38 34
5781 2 18 38 42
5782 2 18 38 44
5783 6 18 38 58
5784 4 18 38 62
5785 4 18 38 64
5786 3 18 38 68
5787 3 32 38 34
5788 3 32 38 42
5789 6 32 38 44
5790 2 32 38 58
5791 2 32 38 62
5792 4 32 38 64
5793 4 32 38 68
5794 6 34 38 42
5795 3 34 38 44
5796 2 34 38 58
5797 4 34 38 62
5798 2 34 38 64
5799 4 34 38 68
5800 3 42 38 44
5801 4 42 38 58
5802 2 42 38 62
5803 4 42 38 64
5804 2 42 38 68
5805 4 44 38 58
5806 4 44 38 62
5807 2 44 38 64
5808 2 44 38 68
5809 2 58 38 62
5810 2 58 38 64
5811 3 58 38 68
5812 3 62 38 64
5813 2 62 38 68
5814 2 64 38 68
5815 3 14 39 34
5816 3 14 39 38
5817 3 14 39 40
5818 3 14 39 44
5819 6 14 39 64
5820 1 14 39 9
5821 1 14 39 13
5822 1 14 39 15
5823 1 14 39 19
5824 3 14 39 33
5825 3 14 39 35
5826 3 14 39 43
5827 3 14 39 45
5828 5 14 39 59
5829 5 14 39 63
5830 5 14 39 65
5831 5 14 39 69
5832 3 34 39 38
5833 3 34 39 40
5834 6 34 39 44
5835 3 34 39 64
5836 1 34 39 9
5837 3 34 39 13
5838 3 34 39 15
5839 5 34 39 19
5840 1 34 39 33
5841 1 34 39 35
5842 5 34 39 43
5843 5 34 39 45
5844 1 34 39 59
5845 3 34 39 63
5846 3 34 39 65
5847 5 34 39 69
5848 6 38 39 40
5849 3 38 39 44
5850 3 38 39 64
5851 3 38 39 9
5852 1 38 39 13
5853 5 38 39 15
5854 3 38 39 19
5855 1 38 39 33
5856 5 38 39 35
5857 1 38 39 43
5858 5 38 39 45
5859 3 38 39 59
5860 1 38 39 63
5861 5 38 39 65
5862 3 38 39 69
5863 3 40 39 44
5864 3 40 39 64
5865 3 40 39 9
5866 5 40 39 13
5867 1 40 39 15
5868 3 40 39 19
5869 5 40 39 33
5870 1 40 39 35
5871 5 40 39 43
5872 1 40 39 45
5873 3 40 39 59
5874 5 40 39 63
5875 1 40 39 65
5876 3 40 39 69
5877 3 44 39 64
5878 5 44 39 9
5879 3 44 39 13
5880 3 44 39 15
5881 1 44 39 19
5882 5 44 39 33
5883 5 44 39 35
5884 1 44 39 43
5885 1 44 39 45
5886 5 44 39 59
5887 3 44 39 63
5888 3 44 39 65
5889 1 44 39 69
5890 5 64 39 9
5891 5 64 39 13
5892 5 64 39 15
5893 5 64 39 19
5894 3 64 39 33
5895 3 64 39 35
5896 3 64 39 43
5897 3 64 39 45
5898 1 64 39 59
5899 1 64 39 63
5900 1 64 39 65
5901 1 64 39 69
5902 2 9 39 13
5903 2 9 39 15
5904 3 9 39 19
5905 2 9 39 33
5906 2 9 39 35
5907 4 9 39 43
5908 4 9 39 45
5909 3 9 39 59
5910 4 9 39 63
5911 4 9 39 65
5912 6 9 39 69
5913 3 13 39 15
5914 2 13 39 19
5915 2 13 39 33
5916 4 13 39 35
5917 2 13 39 43
5918 4 13 39 45
5919 4 13 39 59
5920 3 13 39 63
5921 6 13 39 65
5922 4 13 39 69
5923 2 15 39 19
5924 4 15 39 33
5925 2 15 39 35
5926 4 15 39 43
5927 2 15 39 45
5928 4 15 39 59
5929 6 15 39 63
5930 3 15 39 65
5931 4 15 39 69
5932 4 19 39 33
5933 4 19 39 35
5934 2 19 39 43
5935 2 19 39 45
5936 6 19 39 59
5937 4 19 39 63
5938 4 19 39 65
5939 3 19 39 69
5940 3 33 39 35
5941 3 33 39 43
5942 6 33 39 45
5943 2 33 39 59
5944 2 33 39 63
5945 4 33 39 65
5946 4 33 39 69
5947 6 35 39 43
5948 3 35 39 45
5949 2 35 39 59
5950 4 35 39 63
5951 2 35 39 65
5952 4 35 39 69
5953 3 43 39 45
5954 4 43 39 59
5955 2 43 39 63
5956 4 43 39 65
5957 2 43 39 69
5958 4 45 39 59
5959 4 45 39 63
5960 2 45 39 65
5961 2 45 39 69
5962 2 59 39 63
5963 2 59 39 65
5964 3 59 39 69
5965 3 63 39 65
5966 2 63 39 69
5967 2 65 39 69
5968 3 15 40 35
5969 3 15 40 39
5970 3 15 40 36
5971 3 15 40 45
5972 6 15 40 65
5973 1 15 40 10
5974 1 15 40 14
5975 1 15 40 11
5976 1 15 40 20
5977 3 15 40 34
5978 3 15 40 31
5979 3 15 40 44
5980 3 15 40 41
5981 5 15 40 60
5982 5 15 40 64
5983 5 15 40 61
5984 5 15 40 70
5985 3 35 40 39
5986 3 35 40 36
5987 6 35 40 45
5988 3 35 40 65
5989 1 35 40 10
5990 3 35 40 14
5991 3 35 40 11
5992 5 35 40 20
5993 1 35 40 34
5994 1 35 40 31
5995 5 35 40 44
5996 5 35 40 41
5997 1 35 40 60
5998 3 35 40 64
5999 3 35 40 61
6000 5 35 40 70
6001 6 39 40 36
6002 3 39 40 45
6003 3 39 40 65
6004 3 39 40 10
6005 1 39 40 14
6006 5 39 40 11
6007 3 39 40 20
6008 1 39 40 34
6009 5 39 40 31
6010 1 39 40 44
6011 5 39 40 41
6012 3 39 40 60
6013 1 39 40 64
6014 5 39 40 61
6015 3 39 40 70
6016 3 36 40 45
6017 3 36 40 65
6018 3 36 40 10
6019 5 36 40 14
6020 1 36 40 11
6021 3 36 40 20
6022 5 36 40 34
6023 1 36 40 31
6024 5 36 40 44
6025 1 36 40 41
6026 3 36 40 60
6027 5 36 40 64
6028 1 36 40 61
6029 3 36 40 70
6030 3 45 40 65
6031 5 45 40 10
6032 3 45 40 14
6033 3 45 40 11
6034 1 45 40 20
6035 5 45 40 34
6036 5 45 40 31
6037 1 45 40 44
6038 1 45 40 41
6039 5 45 40 60
6040 3 45 40 64
6041 3 45 40 61
6042 1 45 40 70
6043 5 65 40 10
6044 5 65 40 14
6045 5 65 40 11
6046 5 65 40 20
6047 3 65 40 34
6048 3 65 40 31
6049 3 65 40 44
6050 3 65 40 41
6051 1 65 40 60
6052 1 65 40 64
6053 1 65 40 61
6054 1 65 40 70
6055 2 10 40 14
6056 2 10 40 11
6057 3 10 40 20
6058 2 10 40 34
6059 2 10 40 31
6060 4 10 40 44
6061 4 10 40 41
6062 3 10 40 60
6063 4 10 40 64
6064 4 10 40 61
6065 6 10 40 70
6066 3 14 40 11
6067 2 14 40 20
6068 2 14 40 34
6069 4 14 40 31
6070 2 14 40 44
6071 4 14 40 41
6072 4 14 40 60
6073 3 14 40 64
6074 6 14 40 61
6075 4 14 40 70
6076 2 11 40 20
6077 4 11 40 34
6078 2 11 40 31
6079 4 11 40 44
6080 2 11 40 41
6081 4 11 40 60
6082 6 11 40 64
6083 3 11 40 61
6084 4 11 40 70
6085 4 20 40 34
6086 4 20 40 31
6087 2 20 40 44
6088 2 20 40 41
6089 6 20 40 60
6090 4 20 40 64
6091 4 20 40 61
6092 3 20 40 70
6093 3 34 40 31
6094 3 34 40 44
6095 6 34 40 41
6096 2 34 40 60
6097 2 34 40 64
6098 4 34 40 61
6099 4 34 40 70
6100 6 31 40 44
6101 3 31 40 41
6102 2 31 40 60
6103 4 31 40 64
6104 2 31 40 61
6105 4 31 40 70
6106 3 44 40 41
6107 4 44 40 60
6108 2 44 40 64
6109 4 44 40 61
6110 2 44 40 70
6111 4 41 40 60
6112 4 41 40 64
6113 2 41 40 61
6114 2 41 40 70
6115 2 60 40 64
6116 2 60 40 61
6117 3 60 40 70
6118 3 64 40 61
6119 2 64 40 70
6120 2 61 40 70
6121 3 16 41 36
6122 3 16 41 45
6123 3 16 41 42
6124 3 16 41 46
6125 6 16 41 66
6126 1 16 41 11
6127 1 16 41 20
6128 1 16 41 17
6129 1 16 41 21
6130 3 16 41 40
6131 3 16 41 37
6132 3 16 41 50
6133 3 16 41 47
6134 5 16 41 61
6135 5 16 41 70
6136 5 16 41 67
6137 5 16 41 71
6138 3 36 41 45
6139 3 36 41 42
6140 6 36 41 46
6141 3 36 41 66
6142 1 36 41 11
6143 3 36 41 20
6144 3 36 41 17
6145 5 36 41 21
6146 1 36 41 40
6147 1 36 41 37
6148 5 36 41 50
6149 5 36 41 47
6150 1 36 41 61
6151 3 36 41 70
6152 3 36 41 67
6153 5 36 41 71
6154 6 45 41 42
6155 3 45 41 46
6156 3 45 41 66
6157 3 45 41 11
6158 1 45 41 20
6159 5 45 41 17
6160 3 45 41 21
6161 1 45 41 40
6162 5 45 41 37
6163 1 45 41 50
6164 5 45 41 47
6165 3 45 41 61
6166 1 45 41 70
6167 5 45 41 67
6168 3 45 41 71
6169 3 42 41 46
6170 3 42 41 66
6171 3 42 41 11
6172 5 42 41 20
6173 1 42 41 17
6174 3 42 41 21
6175 5 42 41 40
6176 1 42 41 37
6177 5 42 41 50
6178 1 42 41 47
6179 3 42 41 61
6180 5 42 41 70
6181 1 42 41 67
6182 3 42 41 71
6183 3 46 41 66
6184 5 46 41 11
6185 3 46 41 20
6186 3 46 41 17
6187 1 46 41 21
6188 5 46 41 40
6189 5 46 41 37
6190 1 46 41 50
6191 1 46 41 47
6192 5 46 41 61
6193 3 46 41 70
6194 3 46 41 67
6195 1 46 41 71
6196 5 66 41 11
6197 5 66 41 20
6198 5 66 41 17
6199 5 66 41 21
6200 3 66 41 40
6201 3 66 41 37
6202 3 66 41 50
6203 3 66 41 47
6204 1 66 41 61
6205 1 66 41 70
6206 1 66 41 67
6207 1 66 41 71
6208 2 11 41 20
6209 2 11 41 17
6210 3 11 41 21
6211 2 11 41 40
6212 2 11 41 37
6213 4 11 41 50
6214 4 11 41 47
6215 3 11 41 61
6216 4 11 41 70
6217 4 11 41 67
6218 6 11 41 71
6219 3 20 41 17
6220 2 20 41 21
6221 2 20 41 40
6222 4 20 41 37
6223 2 20 41 50
6224 4 20 41 47
6225 4 20 41 61
6226 3 20 41 70
6227 6 20 41 67
6228 4 20 41 71
6229 2 17 41 21
6230 4 17 41 40
6231 2 17 41 37
6232 4 17 41 50
6233 2 17 41 47
6234 4 17 41 61
6235 6 17 41 70
6236 3 17 41 67
6237 4 17 41 71
6238 4 21 41 40
6239 4 21 41 37
6240 2 21 41 50
6241 2 21 41 47
6242 6 21 41 61
6243 4 21 41 70
6244 4 21 41 67
6245 3 21 41 71
6246 3 40 41 37
6247 3 40 41 50
6248 6 40 41 47
6249 2 40 41 61
6250 2 40 41 70
6251 4 40 41 67
6252 4 40 41 71
6253 6 37 41 50
6254 3 37 41 47
6255 2 37 41 61
6256 4 37 41 70
6257 2 37 41 67
6258 4 37 41 71
6259 3 50 41 47
6260 4 50 41 61
6261 2 50 41 70
6262 4 50 41 67
6263 2 50 41 71
6264 4 47 41 61
6265 4 47 41 70
6266 2 47 41 67
6267 2 47 41 71
6268 2 61 41 70
6269 2 61 41 67
6270 3 61 41 71
6271 3 70 41 67
6272 2 70 41 71
6273 2 67 41 71
6274 3 17 42 37
6275 3 17 42 41
6276 3 17 42 43
6277 3 17 42 47
6278 6 17 42 67
6279 1 17 42 12
6280 1 17 42 16
6281 1 17 42 18
6282 1 17 42 22
6283 3 17 42 36
6284 3 17 42 38
6285 3 17 42 46
6286 3 17 42 48
6287 5 17 42 62
6288 5 17 42 66
6289 5 17 42 68
6290 5 17 42 72
6291 3 37 42 41
6292 3 37 42 43
6293 6 37 42 47
6294 3 37 42 67
6295 1 37 42 12
6296 3 37 42 16
6297 3 37 42 18
6298 5 37 42 22
6299 1 37 42 36
6300 1 37 42 38
6301 5 37 42 46
6302 5 37 42 48
6303 1 37 42 62
6304 3 37 42 66
6305 3 37 42 68
6306 5 37 42 72
6307 6 41 42 43
6308 3 41 42 47
6309 3 41 42 67
6310 3 41 42 12
6311 1 41 42 16
6312 5 41 42 18
6313 3 41 42 22
6314 1 41 42 36
6315 5 41 42 38
6316 1 41 42 46
6317 5 41 42 48
6318 3 41 42 62
6319 1 41 42 66
6320 5 41 42 68
6321 3 41 42 72
6322 3 43 42 47
6323 3 43 42 67
6324 3 43 42 12
6325 5 43 42 16
6326 1 43 42 18
6327 3 43 42 22
6328 5 43 42 36
6329 1 43 42 38
6330 5 43 42 46
6331 1 43 42 48
6332 3 43 42 62
6333 5 43 42 66
6334 1 43 42 68
6335 3 43 42 72
6336 3 47 42 67
6337 5 47 42 12
6338 3 47 42 16
6339 3 47 42 18
6340 1 47 42 22
6341 5 47 42 36
6342 5 47 42 38
6343 1 47 42 46
6344 1 47 42 48
6345 5 47 42 62
6346 3 47 42 66
6347 3 47 42 68
6348 1 47 42 72
6349 5 67 42 12
6350 5 67 42 16
6351 5 67 42 18
6352 5 67 42 22
6353 3 67 42 36
6354 3 67 42 38
6355 3 67 42 46
6356 3 67 42 48
6357 1 67 42 62
6358 1 67 42 66
6359 1 67 42 68
6360 1 67 42 72
6361 2 12 42 16
6362 2 12 42 18
6363 3 12 42 22
6364 2 12 42 36
6365 2 12 42 38
6366 4 12 42 46
6367 4 12 42 48
6368 3 12 42 62
6369 4 12 42 66
6370 4 12 42 68
6371 6 12 42 72
6372 3 16 42 18
6373 2 16 42 22
6374 2 16 42 36
6375 4 16 42 38
6376 2 16 42 46
6377 4 16 42 48
6378 4 16 42 62
6379 3 16 42 66
6380 6 16 42 68
6381 4 16 42 72
6382 2 18 42 22
6383 4 18 42 36
6384 2 18 42 38
6385 4 18 42 46
6386 2 18 42 48
6387 4 18 42 62
6388 6 18 42 66
6389 3 18 42 68
6390 4 18 42 72
6391 4 22 42 36
6392 4 22 42 38
6393 2 22 42 46
6394 2 22 42 48
6395 6 22 42 62
6396 4 22 42 66
6397 4 22 42 68
6398 3 22 42 72
6399 3 36 42 38
6400 3 36 42 46
6401 6 36 42 48
6402 2 36 42 62
6403 2 36 42 66
6404 4 36 42 68
6405 4 36 42 72
6406 6 38 42 46
6407 3 38 42 48
6408 2 38 42 62
6409 4 38 42 66
6410 2 38 42 68
6411 4 38 42 72
6412 3 46 42 48
6413 4 46 42 62
6414 2 46 42 66
6415 4 46 42 68
6416 2 46 42 72
6417 4 48 42 62
6418 4 48 42 66
6419 2 48 42 68
6420 2 48 42 72
6421 2 62 42 66
6422 2 62 42 68
6423 3 62 42 72
6424 3 66 42 68
6425 2 66 42 72
6426 2 68 42 72
6427 3 18 43 38
6428 3 18 43 42
6429 3 18 43 44
6430 3 18 43 48
6431 6 18 43 68
6432 1 18 43 13
6433 1 18 43 17
6434 1 18 43 19
6435 1 18 43 23
6436 3 18 43 37
6437 3 18 43 39
6438 3 18 43 47
6439 3 18 43 49
6440 5 18 43 63
6441 5 18 43 67
6442 5 18 43 69
6443 5 18 43 73
6444 3 38 43 42
6445 3 38 43 44
6446 6 38 43 48
6447 3 38 43 68
6448 1 38 43 13
6449 3 38 43 17
6450 3 38 43 19
6451 5 38 43 23
6452 1 38 43 37
6453 1 38 43 39
6454 5 38 43 47
6455 5 38 43 49
6456 1 38 43 63
6457 3 38 43 67
6458 3 38 43 69
6459 5 38 43 73
6460 6 42 43 44
6461 3 42 43 48
6462 3 42 43 68
6463 3 42 43 13
6464 1 42 43 17
6465 5 42 43 19
6466 3 42 43 23
6467 1 42 43 37
6468 5 42 43 39
6469 1 42 43 47
6470 5 42 43 49
6471 3 42 43 63
6472 1 42 43 67
6473 5 42 43 69
6474 3 42 43 73
6475 3 44 43 48
6476 3 44 43 68
6477 3 44 43 13
6478 5 44 43 17
6479 1 44 43 19
6480 3 44 43 23
6481 5 44 43 37
6482 1 44 43 39
6483 5 44 43 47
6484 1 44 43 49
6485 3 44 43 63
6486 5 44 43 67
6487 1 44 43 69
6488 3 44 43 73
6489 3 48 43 68
6490 5 48 43 13
6491 3 48 43 17
6492 3 48 43 19
6493 1 48 43 23
6494 5 48 43 37
6495 5 48 43 39
6496 1 48 43 47
6497 1 48 43 49
6498 5 48 43 63
6499 3 48 43 67
6500 3 48 43 69
6501 1 48 43 73
6502 5 68 43 13
6503 5 68 43 17
6504 5 68 43 19
6505 5 68 43 23
6506 3 68 43 37
6507 3 68 43 39
6508 3 68 43 47
6509 3 68 43 49
6510 1 68 43 63
6511 1 68 43 67
6512 1 68 43 69
6513 1 68 43 73
6514 2 13 43 17
6515 2 13 43 19
6516 3 13 43 23
6517 2 13 43 37
6518 2 13 43 39
6519 4 13 43 47
6520 4 13 43 49
6521 3 13 43 63
6522 4 13 43 67
6523 4 13 43 69
6524 6 13 43 73
6525 3 17 43 19
6526 2 17 43 23
6527 2 17 43 37
6528 4 17 43 39
6529 2 17 43 47
6530 4 17 43 49
6531 4 17 43 63
6532 3 17 43 67
6533 6 17 43 69
6534 4 17 43 73
6535 2 19 43 23
6536 4 19 43 37
6537 2 19 43 39
6538 4 19 43 47
6539 2 19 43 49
6540 4 19 43 63
6541 6 19 43 67
6542 3 19 43 69
6543 4 19 43 73
6544 4 23 43 37
6545 4 23 43 39
6546 2 23 43 47
6547 2 23 43 49
6548 6 23 43 63
6549 4 23 43 67
6550 4 23 43 69
6551 3 23 43 73
6552 3 37 43 39
6553 3 37 43 47
6554 6 37 43 49
6555 2 37 43 63
6556 2 37 43 67
6557 4 37 43 69
6558 4 37 43 73
6559 6 39 43 47
6560 3 39 43 49
6561 2 39 43 63
6562 4 39 43 67
6563 2 39 43 69
6564 4 39 43 73
6565 3 47 43 49
6566 4 47 43 63
6567 2 47 43 67
6568 4 47 43 69
6569 2 47 43 73
6570 4 49 43 63
6571 4 49 43 67
6572 2 49 43 69
6573 2 49 43 73
6574 2 63 43 67
6575 2 63 43 69
6576 3 63 43 73
6577 3 67 43 69
6578 2 67 43 73
6579 2 69 43 73
6580 3 19 44 39
6581 3 19 44 43
6582 3 19 44 45
6583 3 19 44 49
6584 6 19 44 69
6585 1 19 44 14
6586 1 19 44 18
6587 1 19 44 20
6588 1 19 44 24
6589 3 19 44 38
6590 3 19 44 40
6591 3 19 44 48
6592 3 19 44 50
6593 5 19 44 64
6594 5 19 44 68
6595 5 19 44 70
6596 5 19 44 74
6597 3 39 44 43
6598 3 39 44 45
6599 6 39 44 49
6600 3 39 44 69
6601 1 39 44 14
6602 3 39 44 18
6603 3 39 44 20
6604 5 39 44 24
6605 1 39 44 38
6606 1 39 44 40
6607 5 39 44 48
6608 5 39 44 50
6609 1 39 44 64
6610 3 39 44 68
6611 3 39 44 70
6612 5 39 44 74
6613 6 43 44 45
6614 3 43 44 49
6615 3 43 44 69
6616 3 43 44 14
6617 1 43 44 18
6618 5 43 44 20
6619 3 43 44 24
6620 1 43 44 38
6621 5 43 44 40
6622 1 43 44 48
6623 5 43 44 50
6624 3 43 44 64
6625 1 43 44 68
6626 5 43 44 70
6627 3 43 44 74
6628 3 45 44 49
6629 3 45 44 69
6630 3 45 44 14
6631 5 45 44 18
6632 1 45 44 20
6633 3 45 44 24
6634 5 45 44 38
6635 1 45 44 40
6636 5 45 44 48
6637 1 45 44 50
6638 3 45 44 64
6639 5 45 44 68
6640 1 45 44 70
6641 3 45 44 74
6642 3 49 44 69
6643 5 49 44 14
6644 3 49 44 18
6645 3 49 44 20
6646 1 49 44 24
6647 5 49 44 38
6648 5 49 44 40
6649 1 49 44 48
6650 1 49 44 50
6651 5 49 44 64
6652 3 49 44 68
6653 3 49 44 70
6654 1 49 44 74
6655 5 69 44 14
6656 5 69 44 18
6657 5 69 44 20
6658 5 69 44 24
6659 3 69 44 38
6660 3 69 44 40
6661 3 69 44 48
6662 3 69 44 50
6663 1 69 44 64
6664 1 69 44 68
6665 1 69 44 70
6666 1 69 44 74
6667 2 14 44 18
6668 2 14 44 20
6669 3 14 44 24
6670 2 14 44 38
6671 2 14 44 40
6672 4 14 44 48
6673 4 14 44 50
6674 3 14 44 64
6675 4 14 44 68
6676 4 14 44 70
6677 6 14 44 74
6678 3 18 44 20
6679 2 18 44 24
6680 2 18 44 38
6681 4 18 44 40
6682 2 18 44 48
6683 4 18 44 50
6684 4 18 44 64
6685 3 18 44 68
6686 6 18 44 70
6687 4 18 44 74
6688 2 20 44 24
6689 4 20 44 38
6690 2 20 44 40
6691 4 20 44 48
6692 2 20 44 50
6693 4 20 44 64
6694 6 20 44 68
6695 3 20 44 70
6696 4 20 44 74
6697 4 24 44 38
6698 4 24 44 40
6699 2 24 44 48
6700 2 24 44 50
6701 6 24 44 64
6702 4 24 44 68
6703 4 24 44 70
6704 3 24 44 74
6705 3 38 44 40
6706 3 38 44 48
6707 6 38 44 50
6708 2 38 44 64
6709 2 38 44 68
6710 4 38 44 70
6711 4 38 44 74
6712 6 40 44 48
6713 3 40 44 50
6714 2 40 44 64
6715 4 40 44 68
6716 2 40 44 70
6717 4 40 44 74
6718 3 48 44 50
6719 4 48 44 64
6720 2 48 44 68
6721 4 48 44 70
6722 2 48 44 74
6723 4 50 44 64
6724 4 50 44 68
6725 2 50 44 70
6726 2 50 44 74
6727 2 64 44 68
6728 2 64 44 70
6729 3 64 44 74
6730 3 68 44 70
6731 2 68 44 74
6732 2 70 44 74
6733 3 20 45 40
6734 3 20 45 44
6735 3 20 45 41
6736 3 20 45 50
6737 6 20 45 70
6738 1 20 45 15
6739 1 20 45 19
6740 1 20 45 16
6741 1 20 45 25
6742 3 20 45 39
6743 3 20 45 36
6744 3 20 45 49
6745 3 20 45 46
6746 5 20 45 65
6747 5 20 45 69
6748 5 20 45 66
6749 5 20 45 75
6750 3 40 45 44
6751 3 40 45 41
6752 6 40 45 50
6753 3 40 45 70
6754 1 40 45 15
6755 3 40 45 19
6756 3 40 45 16
6757 5 40 45 25
6758 1 40 45 39
6759 1 40 45 36
6760 5 40 45 49
6761 5 40 45 46
6762 1 40 45 65
6763 3 40 45 69
6764 3 40 45 66
6765 5 40 45 75
6766 6 44 45 41
6767 3 44 45 50
6768 3 44 45 70
6769 3 44 45 15
6770 1 44 45 19
6771 5 44 45 16
6772 3 44 45 25
6773 1 44 45 39
6774 5 44 45 36
6775 1 44 45 49
6776 5 44 45 46
6777 3 44 45 65
6778 1 44 45 69
6779 5 44 45 66
6780 3 44 45 75
6781 3 41 45 50
6782 3 41 45 70
6783 3 41 45 15
6784 5 41 45 19
6785 1 41 45 16
6786 3 41 45 25
6787 5 41 45 39
6788 1 41 45 36
6789 5 41 45 49
6790 1 41 45 46
6791 3 41 45 65
6792 5 41 45 69
6793 1 41 45 66
6794 3 41 45 75
6795 3 50 45 70
6796 5 50 45 15
6797 3 50 45 19
6798 3 50 45 16
6799 1 50 45 25
6800 5 50 45 39
6801 5 50 45 36
6802 1 50 45 49
6803 1 50 45 46
6804 5 50 45 65
6805 3 50 45 69
6806 3 50 45 66
6807 1 50 45 75
6808 5 70 45 15
6809 5 70 45 19
6810 5 70 45 16
6811 5 70 45 25
6812 3 70 45 39
6813 3 70 45 36
6814 3 70 45 49
6815 3 70 45 46
6816 1 70 45 65
6817 1 70 45 69
6818 1 70 45 66
6819 1 70 45 75
6820 2 15 45 19
6821 2 15 45 16
6822 3 15 45 25
6823 2 15 45 39
6824 2 15 45 36
6825 4 15 45 49
6826 4 15 45 46
6827 3 15 45 65
6828 4 15 45 69
6829 4 15 45 66
6830 6 15 45 75
6831 3 19 45 16
6832 2 19 45 25
6833 2 19 45 39
6834 4 19 45 36
6835 2 19 45 49
6836 4 19 45 46
6837 4 19 45 65
6838 3 19 45 69
6839 6 19 45 66
6840 4 19 45 75
6841 2 16 45 25
6842 4 16 45 39
6843 2 16 45 36
6844 4 16 45 49
6845 2 16 45 46
6846 4 16 45 65
6847 6 16 45 69
6848 3 16 45 66
6849 4 16 45 75
6850 4 25 45 39
6851 4 25 45 36
6852 2 25 45 49
6853 2 25 45 46
6854 6 25 45 65
6855 4 25 45 69
6856 4 25 45 66
6857 3 25 45 75
6858 3 39 45 36
6859 3 39 45 49
6860 6 39 45 46
6861 2 39 45 65
6862 2 39 45 69
6863 4 39 45 66
6864 4 39 45 75
6865 6 36 45 49
6866 3 36 45 46
6867 2 36 45 65
6868 4 36 45 69
6869 2 36 45 66
6870 4 36 45 75
6871 3 49 45 46
6872 4 49 45 65
6873 2 49 45 69
6874 4 49 45 66
6875 2 49 45 75
6876 4 46 45 65
6877 4 46 45 69
6878 2 46 45 66
6879 2 46 45 75
6880 2 65 45 69
6881 2 65 45 66
6882 3 65 45 75
6883 3 69 45 66
6884 2 69 45 75
6885 2 66 45 75
6886 3 21 46 41
6887 3 21 46 50
6888 3 21 46 47
6889 3 21 46 26
6890 6 21 46 71
6891 1 21 46 16
6892 1 21 46 25
6893 1 21 46 22
6894 1 21 46 1
6895 3 21 46 45
6896 3 21 46 42
6897 3 21 46 30
6898 3 21 46 27
6899 5 21 46 66
6900 5 21 46 75
6901 5 21 46 72
6902 5 21 46 51
6903 3 41 46 50
6904 3 41 46 47
6905 6 41 46 26
6906 3 41 46 71
6907 1 41 46 16
6908 3 41 46 25
6909 3 41 46 22
6910 5 41 46 1
6911 1 41 46 45
6912 1 41 46 42
6913 5 41 46 30
6914 5 41 46 27
6915 1 41 46 66
6916 3 41 46 75
6917 3 41 46 72
6918 5 41 46 51
6919 6 50 46 47
6920 3 50 46 26
6921 3 50 46 71
6922 3 50 46 16
6923 1 50 46 25
6924 5 50 46 22
6925 3 50 46 1
6926 1 50 46 45
6927 5 50 46 42
6928 1 50 46 30
6929 5 50 46 27
6930 3 50 46 66
6931 1 50 46 75
6932 5 50 46 72
6933 3 50 46 51
6934 3 47 46 26
6935 3 47 46 71
6936 3 47 46 16
6937 5 47 46 25
6938 1 47 46 22
6939 3 47 46 1
6940 5 47 46 45
6941 1 47 46 42
6942 5 47 46 30
6943 1 47 46 27
6944 3 47 46 66
6945 5 47 46 75
6946 1 47 46 72
6947 3 47 46 51
6948 3 26 46 71
6949 5 26 46 16
6950 3 26 46 25
6951 3 26 46 22
6952 1 26 46 1
6953 5 26 46 45
6954 5 26 46 42
6955 1 26 46 30
6956 1 26 46 27
6957 5 26 46 66
6958 3 26 46 75
6959 3 26 46 72
6960 1 26 46 51
6961 5 71 46 16
6962 5 71 46 25
6963 5 71 46 22
6964 5 71 46 1
6965 3 71 46 45
6966 3 71 46 42
6967 3 71 46 30
6968 3 71 46 27
6969 1 71 46 66
6970 1 71 46 75
6971 1 71 46 72
6972 1 71 46 51
6973 2 16 46 25
6974 2 16 46 22
6975 3 16 46 1
6976 2 16 46 45
6977 2 16 46 42
6978 4 16 46 30
6979 4 16 46 27
6980 3 16 46 66
6981 4 16 46 75
6982 4 16 46 72
6983 6 16 46 51
6984 3 25 46 22
6985 2 25 46 1
6986 2 25 46 45
6987 4 25 46 42
6988 2 25 46 30
6989 4 25 46 27
6990 4 25 46 66
6991 3 25 46 75
6992 6 25 46 72
6993 4 25 46 51
6994 2 22 46 1
6995 4 22 46 45
6996 2 22 46 42
6997 4 22 46 30
6998 2 22 46 27
6999 4 22 46 66
7000 6 22 46 75
7001 3 22 46 72
7002 4 22 46 51
7003 4 1 46 45
7004 4 1 46 42
7005 2 1 46 30
7006 2 1 46 27
7007 6 1 46 66
7008 4 1 46 75
7009 4 1 46 72
7010 3 1 46 51
7011 3 45 46 42
7012 3 45 46 30
7013 6 45 46 27
7014 2 45 46 66
7015 2 45 46 75
7016 4 45 46 72
7017 4 45 46 51
7018 6 42 46 30
7019 3 42 46 27
7020 2 42 46 66
7021 4 42 46 75
7022 2 42 46 72
7023 4 42 46 51
7024 3 30 46 27
7025 4 30 46 66
7026 2 30 46 75
7027 4 30 46 72
7028 2 30 46 51
7029 4 27 46 66
7030 4 27 46 75
7031 2 27 46 72
7032 2 27 46 51
7033 2 66 46 75
7034 2 66 46 72
7035 3 66 46 51
7036 3 75 46 72
7037 2 75 46 51
7038 2 72 46 51
7039 3 22 47 42
7040 3 22 47 46
7041 3 22 47 48
7042 3 22 47 27
7043 6 22 47 72
7044 1 22 47 17
7045 1 22 47 21
7046 1 22 47 23
7047 1 22 47 2
7048 3 22 47 41
7049 3 22 47 43
7050 3 22 47 26
7051 3 22 47 28
7052 5 22 47 67
7053 5 22 47 71
7054 5 22 47 73
7055 5 22 47 52
7056 3 42 47 46
7057 3 42 47 48
7058 6 42 47 27
7059 3 42 47 72
7060 1 42 47 17
7061 3 42 47 21
7062 3 42 47 23
7063 5 42 47 2
7064 1 42 47 41
7065 1 42 47 43
7066 5 42 47 26
7067 5 42 47 28
7068 1 42 47 67
7069 3 42 47 71
7070 3 42 47 73
7071 5 42 47 52
7072 6 46 47 48
7073 3 46 47 27
7074 3 46 47 72
7075 3 46 47 17
7076 1 46 47 21
7077 5 46 47 23
7078 3 46 47 2
7079 1 46 47 41
7080 5 46 47 43
7081 1 46 47 26
7082 5 46 47 28
7083 3 46 47 67
7084 1 46 47 71
7085 5 46 47 73
7086 3 46 47 52
7087 3 48 47 27
7088 3 48 47 72
7089 3 48 47 17
7090 5 48 47 21
7091 1 48 47 23
7092 3 48 47 2
7093 5 48 47 41
7094 1 48 47 43
7095 5 48 47 26
7096 1 48 47 28
7097 3 48 47 67
7098 5 48 47 71
7099 1 48 47 73
7100 3 48 47 52
7101 3 27 47 72
7102 5 27 47 17
7103 3 27 47 21
7104 3 27 47 23
7105 1 27 47 2
7106 5 27 47 41
7107 5 27 47 43
7108 1 27 47 26
7109 1 27 47 28
7110 5 27 47 67
7111 3 27 47 71
7112 3 27 47 73
7113 1 27 47 52
7114 5 72 47 17
7115 5 72 47 21
7116 5 72 47 23
7117 5 72 47 2
7118 3 72 47 41
7119 3 72 47 43
7120 3 72 47 26
7121 3 72 47 28
7122 1 72 47 67
7123 1 72 47 71
7124 1 72 47 73
7125 1 72 47 52
7126 2 17 47 21
7127 2 17 47 23
7128 3 17 47 2
7129 2 17 47 41
7130 2 17 47 43
7131 4 17 47 26
7132 4 17 47 28
7133 3 17 47 67
7134 4 17 47 71
7135 4 17 47 73
7136 6 17 47 52
7137 3 21 47 23
7138 2 21 47 2
7139 2 21 47 41
7140 4 21 47 43
7141 2 21 47 26
7142 4 21 47 28
7143 4 21 47 67
7144 3 21 47 71
7145 6 21 47 73
7146 4 21 47 52
7147 2 23 47 2
7148 4 23 47 41
7149 2 23 47 43
7150 4 23 47 26
7151 2 23 47 28
7152 4 23 47 67
7153 6 23 47 71
7154 3 23 47 73
7155 4 23 47 52
7156 4 2 47 41
7157 4 2 47 43
7158 2 2 47 26
7159 2 2 47 28
7160 6 2 47 67
7161 4 2 47 71
7162 4 2 47 73
7163 3 2 47 52
7164 3 41 47 43
7165 3 41 47 26
7166 6 41 47 28
7167 2 41 47 67
7168 2 41 47 71
7169 4 41 47 73
7170 4 41 47 52
7171 6 43 47 26
7172 3 43 47 28
7173 2 43 47 67
7174 4 43 47 71
7175 2 43 47 73
7176 4 43 47 52
7177 3 26 47 28
7178 4 26 47 67
7179 2 26 47 71
7180 4 26 47 73
7181 2 26 47 52
7182 4 28 47 67
7183 4 28 47 71
7184 2 28 47 73
7185 2 28 47 52
7186 2 67 47 71
7187 2 67 47 73
7188 3 67 47 52
7189 3 71 47 73
7190 2 71 47 52
7191 2 73 47 52
7192 3 23 48 43
7193 3 23 48 47
7194 3 23 48 49
7195 3 23 48 28
7196 6 23 48 73
7197 1 23 48 18
7198 1 23 48 22
7199 1 23 48 24
7200 1 23 48 3
7201 3 23 48 42
7202 3 23 48 44
7203 3 23 48 27
7204 3 23 48 29
7205 5 23 48 68
7206 5 23 48 72
7207 5 23 48 74
7208 5 23 48 53
7209 3 43 48 47
7210 3 43 48 49
7211 6 43 48 28
7212 3 43 48 73
7213 1 43 48 18
7214 3 43 48 22
7215 3 43 48 24
7216 5 43 48 3
7217 1 43 48 42
7218 1 43 48 44
7219 5 43 48 27
7220 5 43 48 29
7221 1 43 48 68
7222 3 43 48 72
7223 3 43 48 74
7224 5 43 48 53
7225 6 47 48 49
7226 3 47 48 28
7227 3 47 48 73
7228 3 47 48 18
7229 1 47 48 22
7230 5 47 48 24
7231 3 47 48 3
7232 1 47 48 42
7233 5 47 48 44
7234 1 47 48 27
7235 5 47 48 29
7236 3 47 48 68
7237 1 47 48 72
7238 5 47 48 74
7239 3 47 48 53
7240 3 49 48 28
7241 3 49 48 73
7242 3 49 48 18
7243 5 49 48 22
7244 1 49 48 24
7245 3 49 48 3
7246 5 49 48 42
7247 1 49 48 44
7248 5 49 48 27
7249 1 49 48 29
7250 3 49 48 68
7251 5 49 48 72
7252 1 49 48 74
7253 3 49 48 53
7254 3 28 48 73
7255 5 28 48 18
7256 3 28 48 22
7257 3 28 48 24
7258 1 28 48 3
7259 5 28 48 42
7260 5 28 48 44
7261 1 28 48 27
7262 1 28 48 29
7263 5 28 48 68
7264 3 28 48 72
7265 3 28 48 74
7266 1 28 48 53
7267 5 73 48 18
7268 5 73 48 22
7269 5 73 48 24
7270 5 73 48 3
7271 3 73 48 42
7272 3 73 48 44
7273 3 73 48 27
7274 3 73 48 29
7275 1 73 48 68
7276 1 73 48 72
7277 1 73 48 74
7278 1 73 48 53
7279 2 18 48 22
7280 2 18 48 24
7281 3 18 48 3
7282 2 18 48 42
7283 2 18 48 44
7284 4 18 48 27
7285 4 18 48 29
7286 3 18 48 68
7287 4 18 48 72
7288 4 18 48 74
7289 6 18 48 53
7290 3 22 48 24
7291 2 22 48 3
7292 2 22 48 42
7293 4 22 48 44
7294 2 22 48 27
7295 4 22 48 29
7296 4 22 48 68
7297 3 22 48 72
7298 6 22 48 74
7299 4 22 48 53
7300 2 24 48 3
7301 4 24 48 42
7302 2 24 48 44
7303 4 24 48 27
7304 2 24 48 29
7305 4 24 48 68
7306 6 24 48 72
7307 3 24 48 74
7308 4 24 48 53
7309 4 3 48 42
7310 4 3 48 44
7311 2 3 48 27
7312 2 3 48 29
7313 6 3 48 68
7314 4 3 48 72
7315 4 3 48 74
7316 3 3 48 53
7317 3 42 48 44
7318 3 42 48 27
7319 6 42 48 29
7320 2 42 48 68
7321 2 42 48 72
7322 4 42 48 74
7323 4 42 48 53
7324 6 44 48 27
7325 3 44 48 29
7326 2 44 48 68
7327 4 44 48 72
7328 2 44 48 74
7329 4 44 48 53
7330 3 27 48 29
7331 4 27 48 68
7332 2 27 48 72
7333 4 27 48 74
7334 2 27 48 53
7335 4 29 48 68
7336 4 29 48 72
7337 2 29 48 74
7338 2 29 48 53
7339 2 68 48 72
7340 2 68 48 74
7341 3 68 48 53
7342 3 72 48 74
7343 2 72 48 53
7344 2 74 48 53
7345 3 24 49 44
7346 3 24 49 48
7347 3 24 49 50
7348 3 24 49 29
7349 6 24 49 74
7350 1 24 49 19
7351 1 24 49 23
7352 1 24 49 25
7353 1 24 49 4
7354 3 24 49 43
7355 3 24 49 45
7356 3 24 49 28
7357 3 24 49 30
7358 5 24 49 69
7359 5 24 49 73
7360 5 24 49 75
7361 5 24 49 54
7362 3 44 49 48
7363 3 44 49 50
7364 6 44 49 29
7365 3 44 49 74
7366 1 44 49 19
7367 3 44 49 23
7368 3 44 49 25
7369 5 44 49 4
7370 1 44 49 43
7371 1 44 49 45
7372 5 44 49 28
7373 5 44 49 30
7374 1 44 49 69
7375 3 44 49 73
7376 3 44 49 75
7377 5 44 49 54
7378 6 48 49 50
7379 3 48 49 29
7380 3 48 49 74
7381 3 48 49 19
7382 1 48 49 23
7383 5 48 49 25
7384 3 48 49 4
7385 1 48 49 43
7386 5 48 49 45
7387 1 48 49 28
7388 5 48 49 30
7389 3 48 49 69
7390 1 48 49 73
7391 5 48 49 75
7392 3 48 49 54
7393 3 50 49 29
7394 3 50 49 74
7395 3 50 49 19
7396 5 50 49 23
7397 1 50 49 25
7398 3 50 49 4
7399 5 50 49 43
7400 1 50 49 45
7401 5 50 49 28
7402 1 50 49 30
7403 3 50 49 69
7404 5 50 49 73
7405 1 50 49 75
7406 3 50 49 54
7407 3 29 49 74
7408 5 29 49 19
7409 3 29 49 23
7410 3 29 49 25
7411 1 29 49 4
7412 5 29 49 43
7413 5 29 49 45
7414 1 29 49 28
7415 1 29 49 30
7416 5 29 49 69
7417 3 29 49 73
7418 3 29 49 75
7419 1 29 49 54
7420 5 74 49 19
7421 5 74 49 23
7422 5 74 49 25
7423 5 74 49 4
7424 3 74 49 43
7425 3 74 49 45
7426 3 74 49 28
7427 3 74 49 30
7428 1 74 49 69
7429 1 74 49 73
7430 1 74 49 75
7431 1 74 49 54
7432 2 19 49 23
7433 2 19 49 25
7434 3 19 49 4
7435 2 19 49 43
7436 2 19 49 45
7437 4 19 49 28
7438 4 19 49 30
7439 3 19 49 69
7440 4 19 49 73
7441 4 19 49 75
7442 6 19 49 54
7443 3 23 49 25
7444 2 23 49 4
7445 2 23 49 43
7446 4 23 49 45
7447 2 23 49 28
7448 4 23 49 30
7449 4 23 49 69
7450 3 23 49 73
7451 6 23 49 75
7452 4 23 49 54
7453 2 25 49 4
7454 4 25 49 43
7455 2 25 49 45
7456 4 25 49 28
7457 2 25 49 30
7458 4 25 49 69
7459 6 25 49 73
7460 3 25 49 75
7461 4 25 49 54
7462 4 4 49 43
7463 4 4 49 45
7464 2 4 49 28
7465 2 4 49 30
7466 6 4 49 69
7467 4 4 49 73
7468 4 4 49 75
7469 3 4 49 54
7470 3 43 49 45
7471 3 43 49 28
7472 6 43 49 30
7473 2 43 49 69
7474 2 43 49 73
7475 4 43 49 75
7476 4 43 49 54
7477 6 45 49 28
7478 3 45 49 30
7479 2 45 49 69
7480 4 45 49 73
7481 2 45 49 75
7482 4 45 49 54
7483 3 28 49 30
7484 4 28 49 69
7485 2 28 49 73
7486 4 28 49 75
7487 2 28 49 54
7488 4 30 49 69
7489 4 30 49 73
7490 2 30 49 75
7491 2 30 49 54
7492 2 69 49 73
7493 2 69 49 75
7494 3 69 49 54
7495 3 73 49 75
7496 2 73 49 54
7497 2 75 49 54
7498 3 25 50 45
7499 3 25 50 49
7500 3 25 50 46
7501 3 25 50 30
7502 6 25 50 75
7503 1 25 50 20
7504 1 25 50 24
7505 1 25 50 21
7506 1 25 50 5
7507 3 25 50 44
7508 3 25 50 41
7509 3 25 50 29
7510 3 25 50 26
7511 5 25 50 70
7512 5 25 50 74
7513 5 25 50 71
7514 5 25 50 55
7515 3 45 50 49
7516 3 45 50 46
7517 6 45 50 30
7518 3 45 50 75
7519 1 45 50 20
7520 3 45 50 24
7521 3 45 50 21
7522 5 45 50 5
7523 1 45 50 44
7524 1 45 50 41
7525 5 45 50 29
7526 5 45 50 26
7527 1 45 50 70
7528 3 45 50 74
7529 3 45 50 71
7530 5 45 50 55
7531 6 49 50 46
7532 3 49 50 30
7533 3 49 50 75
7534 3 49 50 20
7535 1 49 50 24
7536 5 49 50 21
7537 3 49 50 5
7538 1 49 50 44
7539 5 49 50 41
7540 1 49 50 29
7541 5 49 50 26
7542 3 49 50 70
7543 1 49 50 74
7544 5 49 50 71
7545 3 49 50 55
7546 3 46 50 30
7547 3 46 50 75
7548 3 46 50 20
7549 5 46 50 24
7550 1 46 50 21
7551 3 46 50 5
7552 5 46 50 44
7553 1 46 50 41
7554 5 46 50 29
7555 1 46 50 26
7556 3 46 50 70
7557 5 46 50 74
7558 1 46 50 71
7559 3 46 50 55
7560 3 30 50 75
7561 5 30 50 20
7562 3 30 50 24
7563 3 30 50 21
7564 1 30 50 5
7565 5 30 50 44
7566 5 30 50 41
7567 1 30 50 29
7568 1 30 50 26
7569 5 30 50 70
7570 3 30 50 74
7571 3 30 50 71
7572 1 30 50 55
7573 5 75 50 20
7574 5 75 50 24
7575 5 75 50 21
7576 5 75 50 5
7577 3 75 50 44
7578 3 75 50 41
7579 3 75 50 29
7580 3 75 50 26
7581 1 75 50 70
7582 1 75 50 74
7583 1 75 50 71
7584 1 75 50 55
7585 2 20 50 24
7586 2 20 50 21
7587 3 20 50 5
7588 2 20 50 44
7589 2 20 50 41
7590 4 20 50 29
7591 4 20 50 26
7592 3 20 50 70
7593 4 20 50 74
7594 4 20 50 71
7595 6 20 50 55
7596 3 24 50 21
7597 2 24 50 5
7598 2 24 50 44
7599 4 24 50 41
7600 2 24 50 29
7601 4 24 50 26
7602 4 24 50 70
7603 3 24 50 74
7604 6 24 50 71
7605 4 24 50 55
7606 2 21 50 5
7607 4 21 50 44
7608 2 21 50 41
7609 4 21 50 29
7610 2 21 50 26
7611 4 21 50 70
7612 6 21 50 74
7613 3 21 50 71
7614 4 21 50 55
7615 4 5 50 44
7616 4 5 50 41
7617 2 5 50 29
7618 2 5 50 26
7619 6 5 50 70
7620 4 5 50 74
7621 4 5 50 71
7622 3 5 50 55
7623 3 44 50 41
7624 3 44 50 29
7625 6 44 50 26
7626 2 44 50 70
7627 2 44 50 74
7628 4 44 50 71
7629 4 44 50 55
7630 6 41 50 29
7631 3 41 50 26
7632 2 41 50 70
7633 4 41 50 74
7634 2 41 50 71
7635 4 41 50 55
7636 3 29 50 26
7637 4 29 50 70
7638 2 29 50 74
7639 4 29 50 71
7640 2 29 50 55
7641 4 26 50 70
7642 4 26 50 74
7643 2 26 50 71
7644 2 26 50 55
7645 2 70 50 74
7646 2 70 50 71
7647 3 70 50 55
7648 3 74 50 71
7649 2 74 50 55
7650 2 71 50 55
7651 3 26 51 71
7652 3 26 51 55
7653 3 26 51 52
7654 3 26 51 56
7655 6 26 51 76
7656 1 26 51 46
7657 1 26 51 30
7658 1 26 51 27
7659 1 26 51 31
7660 3 26 51 75
7661 3 26 51 72
7662 3 26 51 60
7663 3 26 51 57
7664 5 26 51 96
7665 5 26 51 80
7666 5 26 51 77
7667 5 26 51 81
7668 3 71 51 55
7669 3 71 51 52
7670 6 71 51 56
7671 3 71 51 76
7672 1 71 51 46
7673 3 71 51 30
7674 3 71 51 27
7675 5 71 51 31
7676 1 71 51 75
7677 1 71 51 72
7678 5 71 51 60
7679 5 71 51 57
7680 1 71 51 96
7681 3 71 51 80
7682 3 71 51 77
7683 5 71 51 81
7684 6 55 51 52
7685 3 55 51 56
7686 3 55 51 76
7687 3 55 51 46
7688 1 55 51 30
7689 5 55 51 27
7690 3 55 51 31
7691 1 55 51 75
7692 5 55 51 72
7693 1 55 51 60
7694 5 55 51 57
7695 3 55 51 96
7696 1 55 51 80
7697 5 55 51 77
7698 3 55 51 81
7699 3 52 51 56
7700 3 52 51 76
7701 3 52 51 46
7702 5 52 51 30
7703 1 52 51 27
7704 3 52 51 31
7705 5 52 51 75
7706 1 52 51 72
7707 5 52 51 60
7708 1 52 51 57
7709 3 52 51 96
7710 5 52 51 80
7711 1 52 51 77
7712 3 52 51 81
7713 3 56 51 76
7714 5 56 51 46
7715 3 56 51 30
7716 3 56 51 27
7717 1 56 51 31
7718 5 56 51 75
7719 5 56 51 72
7720 1 56 51 60
7721 1 56 51 57
7722 5 56 51 96
7723 3 56 51 80
7724 3 56 51 77
7725 1 56 51 81
7726 5 76 51 46
7727 5 76 51 30
7728 5 76 51 27
7729 5 76 51 31
7730 3 76 51 75
7731 3 76 51 72
7732 3 76 51 60
7733 3 76 51 57
7734 1 76 51 96
7735 1 76 51 80
7736 1 76 51 77
7737 1 76 51 81
7738 2 46 51 30
7739 2 46 51 27
7740 3 46 51 31
7741 2 46 51 75
7742 2 46 51 72
7743 4 46 51 60
7744 4 46 51 57
7745 3 46 51 96
7746 4 46 51 80
7747 4 46 51 77
7748 6 46 51 81
7749 3 30 51 27
7750 2 30 51 31
7751 2 30 51 75
7752 4 30 51 72
7753 2 30 51 60
7754 4 30 51 57
7755 4 30 51 96
7756 3 30 51 80
7757 6 30 51 77
7758 4 30 51 81
7759 2 27 51 31
7760 4 27 51 75
7761 2 27 51 72
7762 4 27 51 60
7763 2 27 51 57
7764 4 27 51 96
7765 6 27 51 80
7766 3 27 51 77
7767 4 27 51 81
7768 4 31 51 75
7769 4 31 51 72
7770 2 31 51 60
7771 2 31 51 57
7772 6 31 51 96
7773 4 31 51 80
7774 4 31 51 77
7775 3 31 51 81
7776 3 75 51 72
7777 3 75 51 60
7778 6 75 51 57
7779 2 75 51 96
7780 2 75 51 80
7781 4 75 51 77
7782 4 75 51 81
7783 6 72 51 60
7784 3 72 51 57
7785 2 72 51 96
7786 4 72 51 80
7787 2 72 51 77
7788 4 72 51 81
7789 3 60 51 57
7790 4 60 51 96
7791 2 60 51 80
7792 4 60 51 77
7793 2 60 51 81
7794 4 57 51 96
7795 4 57 51 80
7796 2 57 51 77
7797 2 57 51 81
7798 2 96 51 80
7799 2 96 51 77
7800 3 96 51 81
7801 3 80 51 77
7802 2 80 51 81
7803 2 77 51 81
7804 3 27 52 72
7805 3 27 52 51
7806 3 27 52 53
7807 3 27 52 57
7808 6 27 52 77
7809 1 27 52 47
7810 1 27 52 26
7811 1 27 52 28
7812 1 27 52 32
7813 3 27 52 71
7814 3 27 52 73
7815 3 27 52 56
7816 3 27 52 58
7817 5 27 52 97
7818 5 27 52 76
7819 5 27 52 78
7820 5 27 52 82
7821 3 72 52 51
7822 3 72 52 53
7823 6 72 52 57
7824 3 72 52 77
7825 1 72 52 47
7826 3 72 52 26
7827 3 72 52 28
7828 5 72 52 32
7829 1 72 52 71
7830 1 72 52 73
7831 5 72 52 56
7832 5 72 52 58
7833 1 72 52 97
7834 3 72 52 76
7835 3 72 52 78
7836 5 72 52 82
7837 6 51 52 53
7838 3 51 52 57
7839 3 51 52 77
7840 3 51 52 47
7841 1 51 52 26
7842 5 51 52 28
7843 3 51 52 32
7844 1 51 52 71
7845 5 51 52 73
7846 1 51 52 56
7847 5 51 52 58
7848 3 51 52 97
7849 1 51 52 76
7850 5 51 52 78
7851 3 51 52 82
7852 3 53 52 57
7853 3 53 52 77
7854 3 53 52 47
7855 5 53 52 26
7856 1 53 52 28
7857 3 53 52 32
7858 5 53 52 71
7859 1 53 52 73
7860 5 53 52 56
7861 1 53 52 58
7862 3 53 52 97
7863 5 53 52 76
7864 1 53 52 78
7865 3 53 52 82
7866 3 57 52 77
7867 5 57 52 47
7868 3 57 52 26
7869 3 57 52 28
7870 1 57 52 32
7871 5 57 52 71
7872 5 57 52 73
7873 1 57 52 56
7874 1 57 52 58
7875 5 57 52 97
7876 3 57 52 76
7877 3 57 52 78
7878 1 57 52 82
7879 5 77 52 47
7880 5 77 52 26
7881 5 77 52 28
7882 5 77 52 32
7883 3 77 52 71
7884 3 77 52 73
7885 3 77 52 56
7886 3 77 52 58
7887 1 77 52 97
7888 1 77 52 76
7889 1 77 52 78
7890 1 77 52 82
7891 2 47 52 26
7892 2 47 52 28
7893 3 47 52 32
7894 2 47 52 71
7895 2 47 52 73
7896 4 47 52 56
7897 4 47 52 58
7898 3 47 52 97
7899 4 47 52 76
7900 4 47 52 78
7901 6 47 52 82
7902 3 26 52 28
7903 2 26 52 32
7904 2 26 52 71
7905 4 26 52 73
7906 2 26 52 56
7907 4 26 52 58
7908 4 26 52 97
7909 3 26 52 76
7910 6 26 52 78
7911 4 26 52 82
7912 2 28 52 32
7913 4 28 52 71
7914 2 28 52 73
7915 4 28 52 56
7916 2 28 52 58
7917 4 28 52 97
7918 6 28 52 76
7919 3 28 52 78
7920 4 28 52 82
7921 4 32 52 71
7922 4 32 52 73
7923 2 32 52 56
7924 2 32 52 58
7925 6 32 52 97
7926 4 32 52 76
7927 4 32 52 78
7928 3 32 52 82
7929 3 71 52 73
7930 3 71 52 56
7931 6 71 52 58
7932 2 71 52 97
7933 2 71 52 76
7934 4 71 52 78
7935 4 71 52 82
7936 6 73 52 56
7937 3 73 52 58
7938 2 73 52 97
7939 4 73 52 76
7940 2 73 52 78
7941 4 73 52 82
7942 3 56 52 58
7943 4 56 52 97
7944 2 56 52 76
7945 4 56 52 78
7946 2 56 52 82
7947 4 58 52 97
7948 4 58 52 76
7949 2 58 52 78
7950 2 58 52 82
7951 2 97 52 76
7952 2 97 52 78
7953 3 97 52 82
7954 3 76 52 78
7955 2 76 52 82
7956 2 78 52 82
7957 3 28 53 73
7958 3 28 53 52
7959 3 28 53 54
7960 3 28 53 58
7961 6 28 53 78
7962 1 28 53 48
7963 1 28 53 27
7964 1 28 53 29
7965 1 28 53 33
7966 3 28 53 72
7967 3 28 53 74
7968 3 28 53 57
7969 3 28 53 59
7970 5 28 53 98
7971 5 28 53 77
7972 5 28 53 79
7973 5 28 53 83
7974 3 73 53 52
7975 3 73 53 54
7976 6 73 53 58
7977 3 73 53 78
7978 1 73 53 48
7979 3 73 53 27
7980 3 73 53 29
7981 5 73 53 33
7982 1 73 53 72
7983 1 73 53 74
7984 5 73 53 57
7985 5 73 53 59
7986 1 73 53 98
7987 3 73 53 77
7988 3 73 53 79
7989 5 73 53 83
7990 6 52 53 54
7991 3 52 53 58
7992 3 52 53 78
7993 3 52 53 48
7994 1 52 53 27
7995 5 52 53 29
7996 3 52 53 33
7997 1 52 53 72
7998 5 52 53 74
7999 1 52 53 57
8000 5 52 53 59
8001 3 52 53 98
8002 1 52 53 77
8003 5 52 53 79
8004 3 52 53 83
8005 3 54 53 58
8006 3 54 53 78
8007 3 54 53 48
8008 5 54 53 27
8009 1 54 53 29
8010 3 54 53 33
8011 5 54 53 72
8012 1 54 53 74
8013 5 54 53 57
8014 1 54 53 59
8015 3 54 53 98
8016 5 54 53 77
8017 1 54 53 79
8018 3 54 53 83
8019 3 58 53 78
8020 5 58 53 48
8021 3 58 53 27
8022 3 58 53 29
8023 1 58 53 33
8024 5 58 53 72
8025 5 58 53 74
8026 1 58 53 57
8027 1 58 53 59
8028 5 58 53 98
8029 3 58 53 77
8030 3 58 53 79
8031 1 58 53 83
8032 5 78 53 48
8033 5 78 53 27
8034 5 78 53 29
8035 5 78 53 33
8036 3 78 53 72
8037 3 78 53 74
8038 3 78 53 57
8039 3 78 53 59
8040 1 78 53 98
8041 1 78 53 77
8042 1 78 53 79
8043 1 78 53 83
8044 2 48 53 27
8045 2 48 53 29
8046 3 48 53 33
8047 2 48 53 72
8048 2 48 53 74
8049 4 48 53 57
8050 4 48 53 59
8051 3 48 53 98
8052 4 48 53 77
8053 4 48 53 79
8054 6 48 53 83
8055 3 27 53 29
8056 2 27 53 33
8057 2 27 53 72
8058 4 27 53 74
8059 2 27 53 57
8060 4 27 53 59
8061 4 27 53 98
8062 3 27 53 77
8063 6 27 53 79
8064 4 27 53 83
8065 2 29 53 33
8066 4 29 53 72
8067 2 29 53 74
8068 4 29 53 57
8069 2 29 53 59
8070 4 29 53 98
8071 6 29 53 77
8072 3 29 53 79
8073 4 29 53 83
8074 4 33 53 72
8075 4 33 53 74
8076 2 33 53 57
8077 2 33 53 59
8078 6 33 53 98
8079 4 33 53 77
8080 4 33 53 79
8081 3 33 53 83
8082 3 72 53 74
8083 3 72 53 57
8084 6 72 53 59
8085 2 72 53 98
8086 2 72 53 77
8087 4 72 53 79
8088 4 72 53 83
8089 6 74 53 57
8090 3 74 53 59
8091 2 74 53 98
8092 4 74 53 77
8093 2 74 53 79
8094 4 74 53 83
8095 3 57 53 59
8096 4 57 53 98
8097 2 57 53 77
8098 4 57 53 79
8099 2 57 53 83
8100 4 59 53 98
8101 4 59 53 77
8102 2 59 53 79
8103 2 59 53 83
8104 2 98 53 77
8105 2 98 53 79
8106 3 98 53 83
8107 3 77 53 79
8108 2 77 53 83
8109 2 79 53 83
8110 3 29 54 74
8111 3 29 54 53
8112 3 29 54 55
8113 3 29 54 59
8114 6 29 54 79
8115 1 29 54 49
8116 1 29 54 28
8117 1 29 54 30
8118 1 29 54 34
8119 3 29 54 73
8120 3 29 54 75
8121 3 29 54 58
8122 3 29 54 60
8123 5 29 54 99
8124 5 29 54 78
8125 5 29 54 80
8126 5 29 54 84
8127 3 74 54 53
8128 3 74 54 55
8129 6 74 54 59
8130 3 74 54 79
8131 1 74 54 49
8132 3 74 54 28
8133 3 74 54 30
8134 5 74 54 34
8135 1 74 54 73
8136 1 74 54 75
8137 5 74 54 58
8138 5 74 54 60
8139 1 74 54 99
8140 3 74 54 78
8141 3 74 54 80
8142 5 74 54 84
8143 6 53 54 55
8144 3 53 54 59
8145 3 53 54 79
8146 3 53 54 49
8147 1 53 54 28
8148 5 53 54 30
8149 3 53 54 34
8150 1 53 54 73
8151 5 53 54 75
8152 1 53 54 58
8153 5 53 54 60
8154 3 53 54 99
8155 1 53 54 78
8156 5 53 54 80
8157 3 53 54 84
8158 3 55 54 59
8159 3 55 54 79
8160 3 55 54 49
8161 5 55 54 28
8162 1 55 54 30
8163 3 55 54 34
8164 5 55 54 73
8165 1 55 54 75
8166 5 55 54 58
8167 1 55 54 60
8168 3 55 54 99
8169 5 55 54 78
8170 1 55 54 80
8171 3 55 54 84
8172 3 59 54 79
8173 5 59 54 49
8174 3 59 54 28
8175 3 59 54 30
8176 1 59 54 34
8177 5 59 54 73
8178 5 59 54 75
8179 1 59 54 58
8180 1 59 54 60
8181 5 59 54 99
8182 3 59 54 78
8183 3 59 54 80
8184 1 59 54 84
8185 5 79 54 49
8186 5 79 54 28
8187 5 79 54 30
8188 5 79 54 34
8189 3 79 54 73
8190 3 79 54 75
8191 3 79 54 58
8192 3 79 54 60
8193 1 79 54 99
8194 1 79 54 78
8195 1 79 54 80
8196 1 79 54 84
8197 2 49 54 28
8198 2 49 54 30
8199 3 49 54 34
8200 2 49 54 73
8201 2 49 54 75
8202 4 49 54 58
8203 4 49 54 60
8204 3 49 54 99
8205 4 49 54 78
8206 4 49 54 80
8207 6 49 54 84
8208 3 28 54 30
8209 2 28 54 34
8210 2 28 54 73
8211 4 28 54 75
8212 2 28 54 58
8213 4 28 54 60
8214 4 28 54 99
8215 3 28 54 78
8216 6 28 54 80
8217 4 28 54 84
8218 2 30 54 34
8219 4 30 54 73
8220 2 30 54 75
8221 4 30 54 58
8222 2 30 54 60
8223 4 30 54 99
8224 6 30 54 78
8225 3 30 54 80
8226 4 30 54 84
8227 4 34 54 73
8228 4 34 54 75
8229 2 34 54 58
8230 2 34 54 60
8231 6 34 54 99
8232 4 34 54 78
8233 4 34 54 80
8234 3 34 54 84
8235 3 73 54 75
8236 3 73 54 58
8237 6 73 54 60
8238 2 73 54 99
8239 2 73 54 78
8240 4 73 54 80
8241 4 73 54 84
8242 6 75 54 58
8243 3 75 54 60
8244 2 75 54 99
8245 4 75 54 78
8246 2 75 54 80
8247 4 75 54 84
8248 3 58 54 60
8249 4 58 54 99
8250 2 58 54 78
8251 4 58 54 80
8252 2 58 54 84
8253 4 60 54 99
8254 4 60 54 78
8255 2 60 54 80
8256 2 60 54 84
8257 2 99 54 78
8258 2 99 54 80
8259 3 99 54 84
8260 3 78 54 80
8261 2 78 54 84
8262 2 80 54 84
8263 3 30 55 75
8264 3 30 55 54
8265 3 30 55 51
8266 3 30 55 60
8267 6 30 55 80
8268 1 30 55 50
8269 1 30 55 29
8270 1 30 55 26
8271 1 30 55 35
8272 3 30 55 74
8273 3 30 55 71
8274 3 30 55 59
8275 3 30 55 56
8276 5 30 55 100
8277 5 30 55 79
8278 5 30 55 76
8279 5 30 55 85
8280 3 75 55 54
8281 3 75 55 51
8282 6 75 55 60
8283 3 75 55 80
8284 1 75 55 50
8285 3 75 55 29
8286 3 75 55 26
8287 5 75 55 35
8288 1 75 55 74
8289 1 75 55 71
8290 5 75 55 59
8291 5 75 55 56
8292 1 75 55 100
8293 3 75 55 79
8294 3 75 55 76
8295 5 75 55 85
8296 6 54 55 51
8297 3 54 55 60
8298 3 54 55 80
8299 3 54 55 50
8300 1 54 55 29
8301 5 54 55 26
8302 3 54 55 35
8303 1 54 55 74
8304 5 54 55 71
8305 1 54 55 59
8306 5 54 55 56
8307 3 54 55 100
8308 1 54 55 79
8309 5 54 55 76
8310 3 54 55 85
8311 3 51 55 60
8312 3 51 55 80
8313 3 51 55 50
8314 5 51 55 29
8315 1 51 55 26
8316 3 51 55 35
8317 5 51 55 74
8318 1 51 55 71
8319 5 51 55 59
8320 1 51 55 56
8321 3 51 55 100
8322 5 51 55 79
8323 1 51 55 76
8324 3 51 55 85
8325 3 60 55 80
8326 5 60 55 50
8327 3 60 55 29
8328 3 60 55 26
8329 1 60 55 35
8330 5 60 55 74
8331 5 60 55 71
8332 1 60 55 59
8333 1 60 55 56
8334 5 60 55 100
8335 3 60 55 79
8336 3 60 55 76
8337 1 60 55 85
8338 5 80 55 50
8339 5 80 55 29
8340 5 80 55 26
8341 5 80 55 35
8342 3 80 55 74
8343 3 80 55 71
8344 3 80 55 59
8345 3 80 55 56
8346 1 80 55 100
8347 1 80 55 79
8348 1 80 55 76
8349 1 80 55 85
8350 2 50 55 29
8351 2 50 55 26
8352 3 50 55 35
8353 2 50 55 74
8354 2 50 55 71
8355 4 50 55 59
8356 4 50 55 56
8357 3 50 55 100
8358 4 50 55 79
8359 4 50 55 76
8360 6 50 55 85
8361 3 29 55 26
8362 2 29 55 35
8363 2 29 55 74
8364 4 29 55 71
8365 2 29 55 59
8366 4 29 55 56
8367 4 29 55 100
8368 3 29 55 79
8369 6 29 55 76
8370 4 29 55 85
8371 2 26 55 35
8372 4 26 55 74
8373 2 26 55 71
8374 4 26 55 59
8375 2 26 55 56
8376 4 26 55 100
8377 6 26 55 79
8378 3 26 55 76
8379 4 26 55 85
8380 4 35 55 74
8381 4 35 55 71
8382 2 35 55 59
8383 2 35 55 56
8384 6 35 55 100
8385 4 35 55 79
8386 4 35 55 76
8387 3 35 55 85
8388 3 74 55 71
8389 3 74 55 59
8390 6 74 55 56
8391 2 74 55 100
8392 2 74 55 79
8393 4 74 55 76
8394 4 74 55 85
8395 6 71 55 59
8396 3 71 55 56
8397 2 71 55 100
8398 4 71 55 79
8399 2 71 55 76
8400 4 71 55 85
8401 3 59 55 56
8402 4 59 55 100
8403 2 59 55 79
8404 4 59 55 76
8405 2 59 55 85
8406 4 56 55 100
8407 4 56 55 79
8408 2 56 55 76
8409 2 56 55 85
8410 2 100 55 79
8411 2 100 55 76
8412 3 100 55 85
8413 3 79 55 76
8414 2 79 55 85
8415 2 76 55 85
8416 3 31 56 51
8417 3 31 56 60
8418 3 31 56 57
8419 3 31 56 61
8420 6 31 56 81
8421 1 31 56 26
8422 1 31 56 35
8423 1 31 56 32
8424 1 31 56 36
8425 3 31 56 55
8426 3 31 56 52
8427 3 31 56 65
8428 3 31 56 62
8429 5 31 56 76
8430 5 31 56 85
8431 5 31 56 82
8432 5 31 56 86
8433 3 51 56 60
8434 3 51 56 57
8435 6 51 56 61
8436 3 51 56 81
8437 1 51 56 26
8438 3 51 56 35
8439 3 51 56 32
8440 5 51 56 36
8441 1 51 56 55
8442 1 51 56 52
8443 5 51 56 65
8444 5 51 56 62
8445 1 51 56 76
8446 3 51 56 85
8447 3 51 56 82
8448 5 51 56 86
8449 6 60 56 57
8450 3 60 56 61
8451 3 60 56 81
8452 3 60 56 26
8453 1 60 56 35
8454 5 60 56 32
8455 3 60 56 36
8456 1 60 56 55
8457 5 60 56 52
8458 1 60 56 65
8459 5 60 56 62
8460 3 60 56 76
8461 1 60 56 85
8462 5 60 56 82
8463 3 60 56 86
8464 3 57 56 61
8465 3 57 56 81
8466 3 57 56 26
8467 5 57 56 35
8468 1 57 56 32
8469 3 57 56 36
8470 5 57 56 55
8471 1 57 56 52
8472 5 57 56 65
8473 1 57 56 62
8474 3 57 56 76
8475 5 57 56 85
8476 1 57 56 82
8477 3 57 56 86
8478 3 61 56 81
8479 5 61 56 26
8480 3 61 56 35
8481 3 61 56 32
8482 1 61 56 36
8483 5 61 56 55
8484 5 61 56 52
8485 1 61 56 65
8486 1 61 56 62
8487 5 61 56 76
8488 3 61 56 85
8489 3 61 56 82
8490 1 61 56 86
8491 5 81 56 26
8492 5 81 56 35
8493 5 81 56 32
8494 5 81 56 36
8495 3 81 56 55
8496 3 81 56 52
8497 3 81 56 65
8498 3 81 56 62
8499 1 81 56 76
8500 1 81 56 85
8501 1 81 56 82
8502 1 81 56 86
8503 2 26 56 35
8504 2 26 56 32
8505 3 26 56 36
8506 2 26 56 55
8507 2 26 56 52
8508 4 26 56 65
8509 4 26 56 62
8510 3 26 56 76
8511 4 26 56 85
8512 4 26 56 82
8513 6 26 56 86
8514 3 35 56 32
8515 2 35 56 36
8516 2 35 56 55
8517 4 35 56 52
8518 2 35 56 65
8519 4 35 56 62
8520 4 35 56 76
8521 3 35 56 85
8522 6 35 56 82
8523 4 35 56 86
8524 2 32 56 36
8525 4 32 56 55
8526 2 32 56 52
8527 4 32 56 65
8528 2 32 56 62
8529 4 32 56 76
8530 6 32 56 85
8531 3 32 56 82
8532 4 32 56 86
8533 4 36 56 55
8534 4 36 56 52
8535 2 36 56 65
8536 2 36 56 62
8537 6 36 56 76
8538 4 36 56 85
8539 4 36 56 82
8540 3 36 56 86
8541 3 55 56 52
8542 3 55 56 65
8543 6 55 56 62
8544 2 55 56 76
8545 2 55 56 85
8546 4 55 56 82
8547 4 55 56 86
8548 6 52 56 65
8549 3 52 56 62
8550 2 52 56 76
8551 4 52 56 85
8552 2 52 56 82
8553 4 52 56 86
8554 3 65 56 62
8555 4 65 56 76
8556 2 65 56 85
8557 4 65 56 82
8558 2 65 56 86
8559 4 62 56 76
8560 4 62 56 85
8561 2 62 56 82
8562 2 62 56 86
8563 2 76 56 85
8564 2 76 56 82
8565 3 76 56 86
8566 3 85 56 82
8567 2 85 56 86
8568 2 82 56 86
8569 3 32 57 52
8570 3 32 57 56
8571 3 32 57 58
8572 3 32 57 62
8573 6 32 57 82
8574 1 32 57 27
8575 1 32 57 31
8576 1 32 57 33
8577 1 32 57 37
8578 3 32 57 51
8579 3 32 57 53
8580 3 32 57 61
8581 3 32 57 63
8582 5 32 57 77
8583 5 32 57 81
8584 5 32 57 83
8585 5 32 57 87
8586 3 52 57 56
8587 3 52 57 58
8588 6 52 57 62
8589 3 52 57 82
8590 1 52 57 27
8591 3 52 57 31
8592 3 52 57 33
8593 5 52 57 37
8594 1 52 57 51
8595 1 52 57 53
8596 5 52 57 61
8597 5 52 57 63
8598 1 52 57 77
8599 3 52 57 81
8600 3 52 57 83
8601 5 52 57 87
8602 6 56 57 58
8603 3 56 57 62
8604 3 56 57 82
8605 3 56 57 27
8606 1 56 57 31
8607 5 56 57 33
8608 3 56 57 37
8609 1 56 57 51
8610 5 56 57 53
8611 1 56 57 61
8612 5 56 57 63
8613 3 56 57 77
8614 1 56 57 81
8615 5 56 57 83
8616 3 56 57 87
8617 3 58 57 62
8618 3 58 57 82
8619 3 58 57 27
8620 5 58 57 31
8621 1 58 57 33
8622 3 58 57 37
8623 5 58 57 51
8624 1 58 57 53
8625 5 58 57 61
8626 1 58 57 63
8627 3 58 57 77
8628 5 58 57 81
8629 1 58 57 83
8630 3 58 57 87
8631 3 62 57 82
8632 5 62 57 27
8633 3 62 57 31
8634 3 62 57 33
8635 1 62 57 37
8636 5 62 57 51
8637 5 62 57 53
8638 1 62 57 61
8639 1 62 57 63
8640 5 62 57 77
8641 3 62 57 81
8642 3 62 57 83
8643 1 62 57 87
8644 5 82 57 27
8645 5 82 57 31
8646 5 82 57 33
8647 5 82 57 37
8648 3 82 57 51
8649 3 82 57 53
8650 3 82 57 61
8651 3 82 57 63
8652 1 82 57 77
8653 1 82 57 81
8654 1 82 57 83
8655 1 82 57 87
8656 2 27 57 31
8657 2 27 57 33
8658 3 27 57 37
8659 2 27 57 51
8660 2 27 57 53
8661 4 27 57 61
8662 4 27 57 63
8663 3 27 57 77
8664 4 27 57 81
8665 4 27 57 83
8666 6 27 57 87
8667 3 31 57 33
8668 2 31 57 37
8669 2 31 57 51
8670 4 31 57 53
8671 2 31 57 61
8672 4 31 57 63
8673 4 31 57 77
8674 3 31 57 81
8675 6 31 57 83
8676 4 31 57 87
8677 2 33 57 37
8678 4 33 57 51
8679 2 33 57 53
8680 4 33 57 61
8681 2 33 57 63
8682 4 33 57 77
8683 6 33 57 81
8684 3 33 57 83
8685 4 33 57 87
8686 4 37 57 51
8687 4 37 57 53
8688 2 37 57 61
8689 2 37 57 63
8690 6 37 57 77
8691 4 37 57 81
8692 4 37 57 83
8693 3 37 57 87
8694 3 51 57 53
8695 3 51 57 61
8696 6 51 57 63
8697 2 51 57 77
8698 2 51 57 81
8699 4 51 57 83
8700 4 51 57 87
8701 6 53 57 61
8702 3 53 57 63
8703 2 53 57 77
8704 4 53 57 81
8705 2 53 57 83
8706 4 53 57 87
8707 3 61 57 63
8708 4 61 57 77
8709 2 61 57 81
8710 4 61 57 83
8711 2 61 57 87
8712 4 63 57 77
8713 4 63 57 81
8714 2 63 57 83
8715 2 63 57 87
8716 2 77 57 81
8717 2 77 57 83
8718 3 77 57 87
8719 3 81 57 83
8720 2 81 57 87
8721 2 83 57 87
8722 3 33 58 53
8723 3 33 58 57
8724 3 33 58 59
8725 3 33 58 63
8726 6 33 58 83
8727 1 33 58 28
8728 1 33 58 32
8729 1 33 58 34
8730 1 33 58 38
8731 3 33 58 52
8732 3 33 58 54
8733 3 33 58 62
8734 3 33 58 64
8735 5 33 58 78
8736 5 33 58 82
8737 5 33 58 84
8738 5 33 58 88
8739 3 53 58 57
8740 3 53 58 59
8741 6 53 58 63
8742 3 53 58 83
8743 1 53 58 28
8744 3 53 58 32
8745 3 53 58 34
8746 5 53 58 38
8747 1 53 58 52
8748 1 53 58 54
8749 5 53 58 62
8750 5 53 58 64
8751 1 53 58 78
8752 3 53 58 82
8753 3 53 58 84
8754 5 53 58 88
8755 6 57 58 59
8756 3 57 58 63
8757 3 57 58 83
8758 3 57 58 28
8759 1 57 58 32
8760 5 57 58 34
8761 3 57 58 38
8762 1 57 58 52
8763 5 57 58 54
8764 1 57 58 62
8765 5 57 58 64
8766 3 57 58 78
8767 1 57 58 82
8768 5 57 58 84
8769 3 57 58 88
8770 3 59 58 63
8771 3 59 58 83
8772 3 59 58 28
8773 5 59 58 32
8774 1 59 58 34
8775 3 59 58 38
8776 5 59 58 52
8777 1 59 58 54
8778 5 59 58 62
8779 1 59 58 64
8780 3 59 58 78
8781 5 59 58 82
8782 1 59 58 84
8783 3 59 58 88
8784 3 63 58 83
8785 5 63 58 28
8786 3 63 58 32
8787 3 63 58 34
8788 1 63 58 38
8789 5 63 58 52
8790 5 63 58 54
8791 1 63 58 62
8792 1 63 58 64
8793 5 63 58 78
8794 3 63 58 82
8795 3 63 58 84
8796 1 63 58 88
8797 5 83 58 28
8798 5 83 58 32
8799 5 83 58 34
8800 5 83 58 38
8801 3 83 58 52
8802 3 83 58 54
8803 3 83 58 62
8804 3 83 58 64
8805 1 83 58 78
8806 1 83 58 82
8807 1 83 58 84
8808 1 83 58 88
8809 2 28 58 32
8810 2 28 58 34
8811 3 28 58 38
8812 2 28 58 52
8813 2 28 58 54
8814 4 28 58 62
8815 4 28 58 64
8816 3 28 58 78
8817 4 28 58 82
8818 4 28 58 84
8819 6 28 58 88
8820 3 32 58 34
8821 2 32 58 38
8822 2 32 58 52
8823 4 32 58 54
8824 2 32 58 62
8825 4 32 58 64
8826 4 32 58 78
8827 3 32 58 82
8828 6 32 58 84
8829 4 32 58 88
8830 2 34 58 38
8831 4 34 58 52
8832 2 34 58 54
8833 4 34 58 62
8834 2 34 58 64
8835 4 34 58 78
8836 6 34 58 82
8837 3 34 58 84
8838 4 34 58 88
8839 4 38 58 52
8840 4 38 58 54
8841 2 38 58 62
8842 2 38 58 64
8843 6 38 58 78
8844 4 38 58 82
8845 4 38 58 84
8846 3 38 58 88
8847 3 52 58 54
8848 3 52 58 62
8849 6 52 58 64
8850 2 52 58 78
8851 2 52 58 82
8852 4 52 58 84
8853 4 52 58 88
8854 6 54 58 62
8855 3 54 58 64
8856 2 54 58 78
8857 4 54 58 82
8858 2 54 58 84
8859 4 54 58 88
8860 3 62 58 64
8861 4 62 58 78
8862 2 62 58 82
8863 4 62 58 84
8864 2 62 58 88
8865 4 64 58 78
8866 4 64 58 82
8867 2 64 58 84
8868 2 64 58 88
8869 2 78 58 82
8870 2 78 58 84
8871 3 78 58 88
8872 3 82 58 84
8873 2 82 58 88
8874 2 84 58 88
8875 3 34 59 54
8876 3 34 59 58
8877 3 34 59 60
8878 3 34 59 64
8879 6 34 59 84
8880 1 34 59 29
8881 1 34 59 33
8882 1 34 59 35
8883 1 34 59 39
8884 3 34 59 53
8885 3 34 59 55
8886 3 34 59 63
8887 3 34 59 65
8888 5 34 59 79
8889 5 34 59 83
8890 5 34 59 85
8891 5 34 59 89
8892 3 54 59 58
8893 3 54 59 60
8894 6 54 59 64
8895 3 54 59 84
8896 1 54 59 29
8897 3 54 59 33
8898 3 54 59 35
8899 5 54 59 39
8900 1 54 59 53
8901 1 54 59 55
8902 5 54 59 63
8903 5 54 59 65
8904 1 54 59 79
8905 3 54 59 83
8906 3 54 59 85
8907 5 54 59 89
8908 6 58 59 60
8909 3 58 59 64
8910 3 58 59 84
8911 3 58 59 29
8912 1 58 59 33
8913 5 58 59 35
8914 3 58 59 39
8915 1 58 59 53
8916 5 58 59 55
8917 1 58 59 63
8918 5 58 59 65
8919 3 58 59 79
8920 1 58 59 83
8921 5 58 59 85
8922 3 58 59 89
8923 3 60 59 64
8924 3 60 59 84
8925 3 60 59 29
8926 5 60 59 33
8927 1 60 59 35
8928 3 60 59 39
8929 5 60 59 53
8930 1 60 59 55
8931 5 60 59 63
8932 1 60 59 65
8933 3 60 59 79
8934 5 60 59 83
8935 1 60 59 85
8936 3 60 59 89
8937 3 64 59 84
8938 5 64 59 29
8939 3 64 59 33
8940 3 64 59 35
8941 1 64 59 39
8942 5 64 59 53
8943 5 64 59 55
8944 1 64 59 63
8945 1 64 59 65
8946 5 64 59 79
8947 3 64 59 83
8948 3 64 59 85
8949 1 64 59 89
8950 5 84 59 29
8951 5 84 59 33
8952 5 84 59 35
8953 5 84 59 39
8954 3 84 59 53
8955 3 84 59 55
8956 3 84 59 63
8957 3 84 59 65
8958 1 84 59 79
8959 1 84 59 83
8960 1 84 59 85
8961 1 84 59 89
8962 2 29 59 33
8963 2 29 59 35
8964 3 29 59 39
8965 2 29 59 53
8966 2 29 59 55
8967 4 29 59 63
8968 4 29 59 65
8969 3 29 59 79
8970 4 29 59 83
8971 4 29 59 85
8972 6 29 59 89
8973 3 33 59 35
8974 2 33 59 39
8975 2 33 59 53
8976 4 33 59 55
8977 2 33 59 63
8978 4 33 59 65
8979 4 33 59 79
8980 3 33 59 83
8981 6 33 59 85
8982 4 33 59 89
8983 2 35 59 39
8984 4 35 59 53
8985 2 35 59 55
8986 4 35 59 63
8987 2 35 59 65
8988 4 35 59 79
8989 6 35 59 83
8990 3 35 59 85
8991 4 35 59 89
8992 4 39 59 53
8993 4 39 59 55
8994 2 39 59 63
8995 2 39 59 65
8996 6 39 59 79
8997 4 39 59 83
8998 4 39 59 85
8999 3 39 59 89
9000 3 53 59 55
9001 3 53 59 63
9002 6 53 59 65
9003 2 53 59 79
9004 2 53 59 83
9005 4 53 59 85
9006 4 53 59 89
9007 6 55 59 63
9008 3 55 59 65
9009 2 55 59 79
9010 4 55 59 83
9011 2 55 59 85
9012 4 55 59 89
9013 3 63 59 65
9014 4 63 59 79
9015 2 63 59 83
9016 4 63 59 85
9017 2 63 59 89
9018 4 65 59 79
9019 4 65 59 83
9020 2 65 59 85
9021 2 65 59 89
9022 2 79 59 83
9023 2 79 59 85
9024 3 79 59 89
9025 3 83 59 85
9026 2 83 59 89
9027 2 85 59 89
9028 3 35 60 55
9029 3 35 60 59
9030 3 35 60 56
9031 3 35 60 65
9032 6 35 60 85
9033 1 35 60 30
9034 1 35 60 34
9035 1 35 60 31
9036 1 35 60 40
9037 3 35 60 54
9038 3 35 60 51
9039 3 35 60 64
9040 3 35 60 61
9041 5 35 60 80
9042 5 35 60 84
9043 5 35 60 81
9044 5 35 60 90
9045 3 55 60 59
9046 3 55 60 56
9047 6 55 60 65
9048 3 55 60 85
9049 1 55 60 30
9050 3 55 60 34
9051 3 55 60 31
9052 5 55 60 40
9053 1 55 60 54
9054 1 55 60 51
9055 5 55 60 64
9056 5 55 60 61
9057 1 55 60 80
9058 3 55 60 84
9059 3 55 60 81
9060 5 55 60 90
9061 6 59 60 56
9062 3 59 60 65
9063 3 59 60 85
9064 3 59 60 30
9065 1 59 60 34
9066 5 59 60 31
9067 3 59 60 40
9068 1 59 60 54
9069 5 59 60 51
9070 1 59 60 64
9071 5 59 60 61
9072 3 59 60 80
9073 1 59 60 84
9074 5 59 60 81
9075 3 59 60 90
9076 3 56 60 65
9077 3 56 60 85
9078 3 56 60 30
9079 5 56 60 34
9080 1 56 60 31
9081 3 56 60 40
9082 5 56 60 54
9083 1 56 60 51
9084 5 56 60 64
9085 1 56 60 61
9086 3 56 60 80
9087 5 56 60 84
9088 1 56 60 81
9089 3 56 60 90
9090 3 65 60 85
9091 5 65 60 30
9092 3 65 60 34
9093 3 65 60 31
9094 1 65 60 40
9095 5 65 60 54
9096 5 65 60 51
9097 1 65 60 64
9098 1 65 60 61
9099 5 65 60 80
9100 3 65 60 84
9101 3 65 60 81
9102 1 65 60 90
9103 5 85 60 30
9104 5 85 60 34
9105 5 85 60 31
9106 5 85 60 40
9107 3 85 60 54
9108 3 85 60 51
9109 3 85 60 64
9110 3 85 60 61
9111 1 85 60 80
9112 1 85 60 84
9113 1 85 60 81
9114 1 85 60 90
9115 2 30 60 34
9116 2 30 60 31
9117 3 30 60 40
9118 2 30 60 54
9119 2 30 60 51
9120 4 30 60 64
9121 4 30 60 61
9122 3 30 60 80
9123 4 30 60 84
9124 4 30 60 81
9125 6 30 60 90
9126 3 34 60 31
9127 2 34 60 40
9128 2 34 60 54
9129 4 34 60 51
9130 2 34 60 64
9131 4 34 60 61
9132 4 34 60 80
9133 3 34 60 84
9134 6 34 60 81
9135 4 34 60 90
9136 2 31 60 40
9137 4 31 60 54
9138 2 31 60 51
9139 4 31 60 64
9140 2 31 60 61
9141 4 31 60 80
9142 6 31 60 84
9143 3 31 60 81
9144 4 31 60 90
9145 4 40 60 54
9146 4 40 60 51
9147 2 40 60 64
9148 2 40 60 61
9149 6 40 60 80
9150 4 40 60 84
9151 4 40 60 81
9152 3 40 60 90
9153 3 54 60 51
9154 3 54 60 64
9155 6 54 60 61
9156 2 54 60 80
9157 2 54 60 84
9158 4 54 60 81
9159 4 54 60 90
9160 6 51 60 64
9161 3 51 60 61
9162 2 51 60 80
9163 4 51 60 84
9164 2 51 60 81
9165 4 51 60 90
9166 3 64 60 61
9167 4 64 60 80
9168 2 64 60 84
9169 4 64 60 81
9170 2 64 60 90
9171 4 61 60 80
9172 4 61 60 84
9173 2 61 60 81
9174 2 61 60 90
9175 2 80 60 84
9176 2 80 60 81
9177 3 80 60 90
9178 3 84 60 81
9179 2 84 60 90
9180 2 81 60 90
9181 3 36 61 56
9182 3 36 61 65
9183 3 36 61 62
9184 3 36 61 66
9185 6 36 61 86
9186 1 36 61 31
9187 1 36 61 40
9188 1 36 61 37
9189 1 36 61 41
9190 3 36 61 60
9191 3 36 61 57
9192 3 36 61 70
9193 3 36 61 67
9194 5 36 61 81
9195 5 36 61 90
9196 5 36 61 87
9197 5 36 61 91
9198 3 56 61 65
9199 3 56 61 62
9200 6 56 61 66
9201 3 56 61 86
9202 1 56 61 31
9203 3 56 61 40
9204 3 56 61 37
9205 5 56 61 41
9206 1 56 61 60
9207 1 56 61 57
9208 5 56 61 70
9209 5 56 61 67
9210 1 56 61 81
9211 3 56 61 90
9212 3 56 61 87
9213 5 56 61 91
9214 6 65 61 62
9215 3 65 61 66
9216 3 65 61 86
9217 3 65 61 31
9218 1 65 61 40
9219 5 65 61 37
9220 3 65 61 41
9221 1 65 61 60
9222 5 65 61 57
9223 1 65 61 70
9224 5 65 61 67
9225 3 65 61 81
9226 1 65 61 90
9227 5 65 61 87
9228 3 65 61 91
9229 3 62 61 66
9230 3 62 61 86
9231 3 62 61 31
9232 5 62 61 40
9233 1 62 61 37
9234 3 62 61 41
9235 5 62 61 60
9236 1 62 61 57
9237 5 62 61 70
9238 1 62 61 67
9239 3 62 61 81
9240 5 62 61 90
9241 1 62 61 87
9242 3 62 61 91
9243 3 66 61 86
9244 5 66 61 31
9245 3 66 61 40
9246 3 66 61 37
9247 1 66 61 41
9248 5 66 61 60
9249 5 66 61 57
9250 1 66 61 70
9251 1 66 61 67
9252 5 66 61 81
9253 3 66 61 90
9254 3 66 61 87
9255 1 66 61 91
9256 5 86 61 31
9257 5 86 61 40
9258 5 86 61 37
9259 5 86 61 41
9260 3 86 61 60
9261 3 86 61 57
9262 3 86 61 70
9263 3 86 61 67
9264 1 86 61 81
9265 1 86 61 90
9266 1 86 61 87
9267 1 86 61 91
9268 2 31 61 40
9269 2 31 61 37
9270 3 31 61 41
9271 2 31 61 60
9272 2 31 61 57
9273 4 31 61 70
9274 4 31 61 67
9275 3 31 61 81
9276 4 31 61 90
9277 4 31 61 87
9278 6 31 61 91
9279 3 40 61 37
9280 2 40 61 41
9281 2 40 61 60
9282 4 40 61 57
9283 2 40 61 70
9284 4 40 61 67
9285 4 40 61 81
9286 3 40 61 90
9287 6 40 61 87
9288 4 40 61 91
9289 2 37 61 41
9290 4 37 61 60
9291 2 37 61 57
9292 4 37 61 70
9293 2 37 61 67
9294 4 37 61 81
9295 6 37 61 90
9296 3 37 61 87
9297 4 37 61 91
9298 4 41 61 60
9299 4 41 61 57
9300 2 41 61 70
9301 2 41 61 67
9302 6 41 61 81
9303 4 41 61 90
9304 4 41 61 87
9305 3 41 61 91
9306 3 60 61 57
9307 3 60 61 70
9308 6 60 61 67
9309 2 60 61 81
9310 2 60 61 90
9311 4 60 61 87
9312 4 60 61 91
9313 6 57 61 70
9314 3 57 61 67
9315 2 57 61 81
9316 4 57 61 90
9317 2 57 61 87
9318 4 57 61 91
9319 3 70 61 67
9320 4 70 61 81
9321 2 70 61 90
9322 4 70 61 87
9323 2 70 61 91
9324 4 67 61 81
9325 4 67 61 90
9326 2 67 61 87
9327 2 67 61 91
9328 2 81 61 90
9329 2 81 61 87
9330 3 81 61 91
9331 3 90 61 87
9332 2 90 61 91
9333 2 87 61 91
9334 3 37 62 57
9335 3 37 62 61
9336 3 37 62 63
9337 3 37 62 67
9338 6 37 62 87
9339 1 37 62 32
9340 1 37 62 36
9341 1 37 62 38
9342 1 37 62 42
9343 3 37 62 56
9344 3 37 62 58
9345 3 37 62 66
9346 3 37 62 68
9347 5 37 62 82
9348 5 37 62 86
9349 5 37 62 88
9350 5 37 62 92
9351 3 57 62 61
9352 3 57 62 63
9353 6 57 62 67
9354 3 57 62 87
9355 1 57 62 32
9356 3 57 62 36
9357 3 57 62 38
9358 5 57 62 42
9359 1 57 62 56
9360 1 57 62 58
9361 5 57 62 66
9362 5 57 62 68
9363 1 57 62 82
9364 3 57 62 86
9365 3 57 62 88
9366 5 57 62 92
9367 6 61 62 63
9368 3 61 62 67
9369 3 61 62 87
9370 3 61 62 32
9371 1 61 62 36
9372 5 61 62 38
9373 3 61 62 42
9374 1 61 62 56
9375 5 61 62 58
9376 1 61 62 66
9377 5 61 62 68
9378 3 61 62 82
9379 1 61 62 86
9380 5 61 62 88
9381 3 61 62 92
9382 3 63 62 67
9383 3 63 62 87
9384 3 63 62 32
9385 5 63 62 36
9386 1 63 62 38
9387 3 63 62 42
9388 5 63 62 56
9389 1 63 62 58
9390 5 63 62 66
9391 1 63 62 68
9392 3 63 62 82
9393 5 63 62 86
9394 1 63 62 88
9395 3 63 62 92
9396 3 67 62 87
9397 5 67 62 32
9398 3 67 62 36
9399 3 67 62 38
9400 1 67 62 42
9401 5 67 62 56
9402 5 67 62 58
9403 1 67 62 66
9404 1 67 62 68
9405 5 67 62 82
9406 3 67 62 86
9407 3 67 62 88
9408 1 67 62 92
9409 5 87 62 32
9410 5 87 62 36
9411 5 87 62 38
9412 5 87 62 42
9413 3 87 62 56
9414 3 87 62 58
9415 3 87 62 66
9416 3 87 62 68
9417 1 87 62 82
9418 1 87 62 86
9419 1 87 62 88
9420 1 87 62 92
9421 2 32 62 36
9422 2 32 62 38
9423 3 32 62 42
9424 2 32 62 56
9425 2 32 62 58
9426 4 32 62 66
9427 4 32 62 68
9428 3 32 62 82
9429 4 32 62 86
9430 4 32 62 88
9431 6 32 62 92
9432 3 36 62 38
9433 2 36 62 42
9434 2 36 62 56
9435 4 36 62 58
9436 2 36 62 66
9437 4 36 62 68
9438 4 36 62 82
9439 3 36 62 86
9440 6 36 62 88
9441 4 36 62 92
9442 2 38 62 42
9443 4 38 62 56
9444 2 38 62 58
9445 4 38 62 66
9446 2 38 62 68
9447 4 38 62 82
9448 6 38 62 86
9449 3 38 62 88
9450 4 38 62 92
9451 4 42 62 56
9452 4 42 62 58
9453 2 42 62 66
9454 2 42 62 68
9455 6 42 62 82
9456 4 42 62 86
9457 4 42 62 88
9458 3 42 62 92
9459 3 56 62 58
9460 3 56 62 66
9461 6 56 62 68
9462 2 56 62 82
9463 2 56 62 86
9464 4 56 62 88
9465 4 56 62 92
9466 6 58 62 66
9467 3 58 62 68
9468 2 58 62 82
9469 4 58 62 86
9470 2 58 62 88
9471 4 58 62 92
9472 3 66 62 68
9473 4 66 62 82
9474 2 66 62 86
9475 4 66 62 88
9476 2 66 62 92
9477 4 68 62 82
9478 4 68 62 86
9479 2 68 62 88
9480 2 68 62 92
9481 2 82 62 86
9482 2 82 62 88
9483 3 82 62 92
9484 3 86 62 88
9485 2 86 62 92
9486 2 88 62 92
9487 3 38 63 58
9488 3 38 63 62
9489 3 38 63 64
9490 3 38 63 68
9491 6 38 63 88
9492 1 38 63 33
9493 1 38 63 37
9494 1 38 63 39
9495 1 38 63 43
9496 3 38 63 57
9497 3 38 63 59
9498 3 38 63 67
9499 3 38 63 69
9500 5 38 63 83
9501 5 38 63 87
9502 5 38 63 89
9503 5 38 63 93
9504 3 58 63 62
9505 3 58 63 64
9506 6 58 63 68
9507 3 58 63 88
9508 1 58 63 33
9509 3 58 63 37
9510 3 58 63 39
9511 5 58 63 43
9512 1 58 63 57
9513 1 58 63 59
9514 5 58 63 67
9515 5 58 63 69
9516 1 58 63 83
9517 3 58 63 87
9518 3 58 63 89
9519 5 58 63 93
9520 6 62 63 64
9521 3 62 63 68
9522 3 62 63 88
9523 3 62 63 33
9524 1 62 63 37
9525 5 62 63 39
9526 3 62 63 43
9527 1 62 63 57
9528 5 62 63 59
9529 1 62 63 67
9530 5 62 63 69
9531 3 62 63 83
9532 1 62 63 87
9533 5 62 63 89
9534 3 62 63 93
9535 3 64 63 68
9536 3 64 63 88
9537 3 64 63 33
9538 5 64 63 37
9539 1 64 63 39
9540 3 64 63 43
9541 5 64 63 57
9542 1 64 63 59
9543 5 64 63 67
9544 1 64 63 69
9545 3 64 63 83
9546 5 64 63 87
9547 1 64 63 89
9548 3 64 63 93
9549 3 68 63 88
9550 5 68 63 33
9551 3 68 63 37
9552 3 68 63 39
9553 1 68 63 43
9554 5 68 63 57
9555 5 68 63 59
9556 1 68 63 67
9557 1 68 63 69
9558 5 68 63 83
9559 3 68 63 87
9560 3 68 63 89
9561 1 68 63 93
9562 5 88 63 33
9563 5 88 63 37
9564 5 88 63 39
9565 5 88 63 43
9566 3 88 63 57
9567 3 88 63 59
9568 3 88 63 67
9569 3 88 63 69
9570 1 88 63 83
9571 1 88 63 87
9572 1 88 63 89
9573 1 88 63 93
9574 2 33 63 37
9575 2 33 63 39
9576 3 33 63 43
9577 2 33 63 57
9578 2 33 63 59
9579 4 33 63 67
9580 4 33 63 69
9581 3 33 63 83
9582 4 33 63 87
9583 4 33 63 89
9584 6 33 63 93
9585 3 37 63 39
9586 2 37 63 43
9587 2 37 63 57
9588 4 37 63 59
9589 2 37 63 67
9590 4 37 63 69
9591 4 37 63 83
9592 3 37 63 87
9593 6 37 63 89
9594 4 37 63 93
9595 2 39 63 43
9596 4 39 63 57
9597 2 39 63 59
9598 4 39 63 67
9599 2 39 63 69
9600 4 39 63 83
9601 6 39 63 87
9602 3 39 63 89
9603 4 39 63 93
9604 4 43 63 57
9605 4 43 63 59
9606 2 43 63 67
9607 2 43 63 69
9608 6 43 63 83
9609 4 43 63 87
9610 4 43 63 89
9611 3 43 63 93
9612 3 57 63 59
9613 3 57 63 67
9614 6 57 63 69
9615 2 57 63 83
9616 2 57 63 87
9617 4 57 63 89
9618 4 57 63 93
9619 6 59 63 67
9620 3 59 63 69
9621 2 59 63 83
9622 4 59 63 87
9623 2 59 63 89
9624 4 59 63 93
9625 3 67 63 69
9626 4 67 63 83
9627 2 67 63 87
9628 4 67 63 89
9629 2 67 63 93
9630 4 69 63 83
9631 4 69 63 87
9632 2 69 63 89
9633 2 69 63 93
9634 2 83 63 87
9635 2 83 63 89
9636 3 83 63 93
9637 3 87 63 89
9638 2 87 63 93
9639 2 89 63 93
9640 3 39 64 59
9641 3 39 64 63
9642 3 39 64 65
9643 3 39 64 69
9644 6 39 64 89
9645 1 39 64 34
9646 1 39 64 38
9647 1 39 64 40
9648 1 39 64 44
9649 3 39 64 58
9650 3 39 64 60
9651 3 39 64 68
9652 3 39 64 70
9653 5 39 64 84
9654 5 39 64 88
9655 5 39 64 90
9656 5 39 64 94
9657 3 59 64 63
9658 3 59 64 65
9659 6 59 64 69
9660 3 59 64 89
9661 1 59 64 34
9662 3 59 64 38
9663 3 59 64 40
9664 5 59 64 44
9665 1 59 64 58
9666 1 59 64 60
9667 5 59 64 68
9668 5 59 64 70
9669 1 59 64 84
9670 3 59 64 88
9671 3 59 64 90
9672 5 59 64 94
9673 6 63 64 65
9674 3 63 64 69
9675 3 63 64 89
9676 3 63 64 34
9677 1 63 64 38
9678 5 63 64 40
9679 3 63 64 44
9680 1 63 64 58
9681 5 63 64 60
9682 1 63 64 68
9683 5 63 64 70
9684 3 63 64 84
9685 1 63 64 88
9686 5 63 64 90
9687 3 63 64 94
9688 3 65 64 69
9689 3 65 64 89
9690 3 65 64 34
9691 5 65 64 38
9692 1 65 64 40
9693 3 65 64 44
9694 5 65 64 58
9695 1 65 64 60
9696 5 65 64 68
9697 1 65 64 70
9698 3 65 64 84
9699 5 65 64 88
9700 1 65 64 90
9701 3 65 64 94
9702 3 69 64 89
9703 5 69 64 34
9704 3 69 64 38
9705 3 69 64 40
9706 1 69 64 44
9707 5 69 64 58
9708 5 69 64 60
9709 1 69 64 68
9710 1 69 64 70
9711 5 69 64 84
9712 3 69 64 88
9713 3 69 64 90
9714 1 69 64 94
9715 5 89 64 34
9716 5 89 64 38
9717 5 89 64 40
9718 5 89 64 44
9719 3 89 64 58
9720 3 89 64 60
9721 3 89 64 68
9722 3 89 64 70
9723 1 89 64 84
9724 1 89 64 88
9725 1 89 64 90
9726 1 89 64 94
9727 2 34 64 38
9728 2 34 64 40
9729 3 34 64 44
9730 2 34 64 58
9731 2 34 64 60
9732 4 34 64 68
9733 4 34 64 70
9734 3 34 64 84
9735 4 34 64 88
9736 4 34 64 90
9737 6 34 64 94
9738 3 38 64 40
9739 2 38 64 44
9740 2 38 64 58
9741 4 38 64 60
9742 2 38 64 68
9743 4 38 64 70
9744 4 38 64 84
9745 3 38 64 88
9746 6 38 64 90
9747 4 38 64 94
9748 2 40 64 44
9749 4 40 64 58
9750 2 40 64 60
9751 4 40 64 68
9752 2 40 64 70
9753 4 40 64 84
9754 6 40 64 88
9755 3 40 64 90
9756 4 40 64 94
9757 4 44 64 58
9758 4 44 64 60
9759 2 44 64 68
9760 2 44 64 70
9761 6 44 64 84
9762 4 44 64 88
9763 4 44 64 90
9764 3 44 64 94
9765 3 58 64 60
9766 3 58 64 68
9767 6 58 64 70
9768 2 58 64 84
9769 2 58 64 88
9770 4 58 64 90
9771 4 58 64 94
9772 6 60 64 68
9773 3 60 64 70
9774 2 60 64 84
9775 4 60 64 88
9776 2 60 64 90
9777 4 60 64 94
9778 3 68 64 70
9779 4 68 64 84
9780 2 68 64 88
9781 4 68 64 90
9782 2 68 64 94
9783 4 70 64 84
9784 4 70 64 88
9785 2 70 64 90
9786 2 70 64 94
9787 2 84 64 88
9788 2 84 64 90
9789 3 84 64 94
9790 3 88 64 90
9791 2 88 64 94
9792 2 90 64 94
9793 3 40 65 60
9794 3 40 65 64
9795 3 40 65 61
9796 3 40 65 70
9797 6 40 65 90
9798 1 40 65 35
9799 1 40 65 39
9800 1 40 65 36
9801 1 40 65 45
9802 3 40 65 59
9803 3 40 65 56
9804 3 40 65 69
9805 3 40 65 66
9806 5 40 65 85
9807 5 40 65 89
9808 5 40 65 86
9809 5 40 65 95
9810 3 60 65 64
9811 3 60 65 61
9812 6 60 65 70
9813 3 60 65 90
9814 1 60 65 35
9815 3 60 65 39
9816 3 60 65 36
9817 5 60 65 45
9818 1 60 65 59
9819 1 60 65 56
9820 5 60 65 69
9821 5 60 65 66
9822 1 60 65 85
9823 3 60 65 89
9824 3 60 65 86
9825 5 60 65 95
9826 6 64 65 61
9827 3 64 65 70
9828 3 64 65 90
9829 3 64 65 35
9830 1 64 65 39
9831 5 64 65 36
9832 3 64 65 45
9833 1 64 65 59
9834 5 64 65 56
9835 1 64 65 69
9836 5 64 65 66
9837 3 64 65 85
9838 1 64 65 89
9839 5 64 65 86
9840 3 64 65 95
9841 3 61 65 70
9842 3 61 65 90
9843 3 61 65 35
9844 5 61 65 39
9845 1 61 65 36
9846 3 61 65 45
9847 5 61 65 59
9848 1 61 65 56
9849 5 61 65 69
9850 1 61 65 66
9851 3 61 65 85
9852 5 61 65 89
9853 1 61 65 86
9854 3 61 65 95
9855 3 70 65 90
9856 5 70 65 35
9857 3 70 65 39
9858 3 70 65 36
9859 1 70 65 45
9860 5 70 65 59
9861 5 70 65 56
9862 1 70 65 69
9863 1 70 65 66
9864 5 70 65 85
9865 3 70 65 89
9866 3 70 65 86
9867 1 70 65 95
9868 5 90 65 35
9869 5 90 65 39
9870 5 90 65 36
9871 5 90 65 45
9872 3 90 65 59
9873 3 90 65 56
9874 3 90 65 69
9875 3 90 65 66
9876 1 90 65 85
9877 1 90 65 89
9878 1 90 65 86
9879 1 90 65 95
9880 2 35 65 39
9881 2 35 65 36
9882 3 35 65 45
9883 2 35 65 59
9884 2 35 65 56
9885 4 35 65 69
9886 4 35 65 66
9887 3 35 65 85
9888 4 35 65 89
9889 4 35 65 86
9890 6 35 65 95
9891 3 39 65 36
9892 2 39 65 45
9893 2 39 65 59
9894 4 39 65 56
9895 2 39 65 69
9896 4 39 65 66
9897 4 39 65 85
9898 3 39 65 89
9899 6 39 65 86
9900 4 39 65 95
9901 2 36 65 45
9902 4 36 65 59
9903 2 36 65 56
9904 4 36 65 69
9905 2 36 65 66
9906 4 36 65 85
9907 6 36 65 89
9908 3 36 65 86
9909 4 36 65 95
9910 4 45 65 59
9911 4 45 65 56
9912 2 45 65 69
9913 2 45 65 66
9914 6 45 65 85
9915 4 45 65 89
9916 4 45 65 86
9917 3 45 65 95
9918 3 59 65 56
9919 3 59 65 69
9920 6 59 65 66
9921 2 59 65 85
9922 2 59 65 89
9923 4 59 65 86
9924 4 59 65 95
9925 6 56 65 69
9926 3 56 65 66
9927 2 56 65 85
9928 4 56 65 89
9929 2 56 65 86
9930 4 56 65 95
9931 3 69 65 66
9932 4 69 65 85
9933 2 69 65 89
9934 4 69 65 86
9935 2 69 65 95
9936 4 66 65 85
9937 4 66 65 89
9938 2 66 65 86
9939 2 66 65 95
9940 2 85 65 89
9941 2 85 65 86
9942 3 85 65 95
9943 3 89 65 86
9944 2 89 65 95
9945 2 86 65 95
9946 3 41 66 61
9947 3 41 66 70
9948 3 41 66 67
9949 3 41 66 71
9950 6 41 66 91
9951 1 41 66 36
9952 1 41 66 45
9953 1 41 66 42
9954 1 41 66 46
9955 3 41 66 65
9956 3 41 66 62
9957 3 41 66 75
9958 3 41 66 72
9959 5 41 66 86
9960 5 41 66 95
9961 5 41 66 92
9962 5 41 66 96
9963 3 61 66 70
9964 3 61 66 67
9965 6 61 66 71
9966 3 61 66 91
9967 1 61 66 36
9968 3 61 66 45
9969 3 61 66 42
9970 5 61 66 46
9971 1 61 66 65
9972 1 61 66 62
9973 5 61 66 75
9974 5 61 66 72
9975 1 61 66 86
9976 3 61 66 95
9977 3 61 66 92
9978 5 61 66 96
9979 6 70 66 67
9980 3 70 66 71
9981 3 70 66 91
9982 3 70 66 36
9983 1 70 66 45
9984 5 70 66 42
9985 3 70 66 46
9986 1 70 66 65
9987 5 70 66 62
9988 1 70 66 75
9989 5 70 66 72
9990 3 70 66 86
9991 1 70 66 95
9992 5 70 66 92
9993 3 70 66 96
9994 3 67 66 71
9995 3 67 66 91
9996 3 67 66 36
9997 5 67 66 45
9998 1 67 66 42
9999 3 67 66 46
10000 5 67 66 65
10001 1 67 66 62
10002 5 67 66 75
10003 1 67 66 72
10004 3 67 66 86
10005 5 67 66 95
10006 1 67 66 92
10007 3 67 66 96
10008 3 71 66 91
10009 5 71 66 36
10010 3 71 66 45
10011 3 71 66 42
10012 1 71 66 46
10013 5 71 66 65
10014 5 71 66 62
10015 1 71 66 75
10016 1 71 66 72
10017 5 71 66 86
10018 3 71 66 95
10019 3 71 66 92
10020 1 71 66 96
10021 5 91 66 36
10022 5 91 66 45
10023 5 91 66 42
10024 5 91 66 46
10025 3 91 66 65
10026 3 91 66 62
10027 3 91 66 75
10028 3 91 66 72
10029 1 91 66 86
10030 1 91 66 95
10031 1 91 66 92
10032 1 91 66 96
10033 2 36 66 45
10034 2 36 66 42
10035 3 36 66 46
10036 2 36 66 65
10037 2 36 66 62
10038 4 36 66 75
10039 4 36 66 72
10040 3 36 66 86
10041 4 36 66 95
10042 4 36 66 92
10043 6 36 66 96
10044 3 45 66 42
10045 2 45 66 46
10046 2 45 66 65
10047 4 45 66 62
10048 2 45 66 75
10049 4 45 66 72
10050 4 45 66 86
10051 3 45 66 95
10052 6 45 66 92
10053 4 45 66 96
10054 2 42 66 46
10055 4 42 66 65
10056 2 42 66 62
10057 4 42 66 75
10058 2 42 66 72
10059 4 42 66 86
10060 6 42 66 95
10061 3 42 66 92
10062 4 42 66 96
10063 4 46 66 65
10064 4 46 66 62
10065 2 46 66 75
10066 2 46 66 72
10067 6 46 66 86
10068 4 46 66 95
10069 4 46 66 92
10070 3 46 66 96
10071 3 65 66 62
10072 3 65 66 75
10073 6 65 66 72
10074 2 65 66 86
10075 2 65 66 95
10076 4 65 66 92
10077 4 65 66 96
10078 6 62 66 75
10079 3 62 66 72
10080 2 62 66 86
10081 4 62 66 95
10082 2 62 66 92
10083 4 62 66 96
10084 3 75 66 72
10085 4 75 66 86
10086 2 75 66 95
10087 4 75 66 92
10088 2 75 66 96
10089 4 72 66 86
10090 4 72 66 95
10091 2 72 66 92
10092 2 72 66 96
10093 2 86 66 95
10094 2 86 66 92
10095 3 86 66 96
10096 3 95 66 92
10097 2 95 66 96
10098 2 92 66 96
10099 3 42 67 62
10100 3 42 67 66
10101 3 42 67 68
10102 3 42 67 72
10103 6 42 67 92
10104 1 42 67 37
10105 1 42 67 41
10106 1 42 67 43
10107 1 42 67 47
10108 3 42 67 61
10109 3 42 67 63
10110 3 42 67 71
10111 3 42 67 73
10112 5 42 67 87
10113 5 42 67 91
10114 5 42 67 93
10115 5 42 67 97
10116 3 62 67 66
10117 3 62 67 68
10118 6 62 67 72
10119 3 62 67 92
10120 1 62 67 37
10121 3 62 67 41
10122 3 62 67 43
10123 5 62 67 47
10124 1 62 67 61
10125 1 62 67 63
10126 5 62 67 71
10127 5 62 67 73
10128 1 62 67 87
10129 3 62 67 91
10130 3 62 67 93
10131 5 62 67 97
10132 6 66 67 68
10133 3 66 67 72
10134 3 66 67 92
10135 3 66 67 37
10136 1 66 67 41
10137 5 66 67 43
10138 3 66 67 47
10139 1 66 67 61
10140 5 66 67 63
10141 1 66 67 71
10142 5 66 67 73
10143 3 66 67 87
10144 1 66 67 91
10145 5 66 67 93
10146 3 66 67 97
10147 3 68 67 72
10148 3 68 67 92
10149 3 68 67 37
10150 5 68 67 41
10151 1 68 67 43
10152 3 68 67 47
10153 5 68 67 61
10154 1 68 67 63
10155 5 68 67 71
10156 1 68 67 73
10157 3 68 67 87
10158 5 68 67 91
10159 1 68 67 93
10160 3 68 67 97
10161 3 72 67 92
10162 5 72 67 37
10163 3 72 67 41
10164 3 72 67 43
10165 1 72 67 47
10166 5 72 67 61
10167 5 72 67 63
10168 1 72 67 71
10169 1 72 67 73
10170 5 72 67 87
10171 3 72 67 91
10172 3 72 67 93
10173 1 72 67 97
10174 5 92 67 37
10175 5 92 67 41
10176 5 92 67 43
10177 5 92 67 47
10178 3 92 67 61
10179 3 92 67 63
10180 3 92 67 71
10181 3 92 67 73
10182 1 92 67 87
10183 1 92 67 91
10184 1 92 67 93
10185 1 92 67 97
10186 2 37 67 41
10187 2 37 67 43
10188 3 37 67 47
10189 2 37 67 61
10190 2 37 67 63
10191 4 37 67 71
10192 4 37 67 73
10193 3 37 67 87
10194 4 37 67 91
10195 4 37 67 93
10196 6 37 67 97
10197 3 41 67 43
10198 2 41 67 47
10199 2 41 67 61
10200 4 41 67 63
10201 2 41 67 71
10202 4 41 67 73
10203 4 41 67 87
10204 3 41 67 91
10205 6 41 67 93
10206 4 41 67 97
10207 2 43 67 47
10208 4 43 67 61
10209 2 43 67 63
10210 4 43 67 71
10211 2 43 67 73
10212 4 43 67 87
10213 6 43 67 91
10214 3 43 67 93
10215 4 43 67 97
10216 4 47 67 61
10217 4 47 67 63
10218 2 47 67 71
10219 2 47 67 73
10220 6 47 67 87
10221 4 47 67 91
10222 4 47 67 93
10223 3 47 67 97
10224 3 61 67 63
10225 3 61 67 71
10226 6 61 67 73
10227 2 61 67 87
10228 2 61 67 91
10229 4 61 67 93
10230 4 61 67 97
10231 6 63 67 71
10232 3 63 67 73
10233 2 63 67 87
10234 4 63 67 91
10235 2 63 67 93
10236 4 63 67 97
10237 3 71 67 73
10238 4 71 67 87
10239 2 71 67 91
10240 4 71 67 93
10241 2 71 67 97
10242 4 73 67 87
10243 4 73 67 91
10244 2 73 67 93
10245 2 73 67 97
10246 2 87 67 91
10247 2 87 67 93
10248 3 87 67 97
10249 3 91 67 93
10250 2 91 67 97
10251 2 93 67 97
10252 3 43 68 63
10253 3 43 68 67
10254 3 43 68 69
10255 3 43 68 73
10256 6 43 68 93
10257 1 43 68 38
10258 1 43 68 42
10259 1 43 68 44
10260 1 43 68 48
10261 3 43 68 62
10262 3 43 68 64
10263 3 43 68 72
10264 3 43 68 74
10265 5 43 68 88
10266 5 43 68 92
10267 5 43 68 94
10268 5 43 68 98
10269 3 63 68 67
10270 3 63 68 69
10271 6 63 68 73
10272 3 63 68 93
10273 1 63 68 38
10274 3 63 68 42
10275 3 63 68 44
10276 5 63 68 48
10277 1 63 68 62
10278 1 63 68 64
10279 5 63 68 72
10280 5 63 68 74
10281 1 63 68 88
10282 3 63 68 92
10283 3 63 68 94
10284 5 63 68 98
10285 6 67 68 69
10286 3 67 68 73
10287 3 67 68 93
10288 3 67 68 38
10289 1 67 68 42
10290 5 67 68 44
10291 3 67 68 48
10292 1 67 68 62
10293 5 67 68 64
10294 1 67 68 72
10295 5 67 68 74
10296 3 67 68 88
10297 1 67 68 92
10298 5 67 68 94
10299 3 67 68 98
10300 3 69 68 73
10301 3 69 68 93
10302 3 69 68 38
10303 5 69 68 42
10304 1 69 68 44
10305 3 69 68 48
10306 5 69 68 62
10307 1 69 68 64
10308 5 69 68 72
10309 1 69 68 74
10310 3 69 68 88
10311 5 69 68 92
10312 1 69 68 94
10313 3 69 68 98
10314 3 73 68 93
10315 5 73 68 38
10316 3 73 68 42
10317 3 73 68 44
10318 1 73 68 48
10319 5 73 68 62
10320 5 73 68 64
10321 1 73 68 72
10322 1 73 68 74
10323 5 73 68 88
10324 3 73 68 92
10325 3 73 68 94
10326 1 73 68 98
10327 5 93 68 38
10328 5 93 68 42
10329 5 93 68 44
10330 5 93 68 48
10331 3 93 68 62
10332 3 93 68 64
10333 3 93 68 72
10334 3 93 68 74
10335 1 93 68 88
10336 1 93 68 92
10337 1 93 68 94
10338 1 93 68 98
10339 2 38 68 42
10340 2 38 68 44
10341 3 38 68 48
10342 2 38 68 62
10343 2 38 68 64
10344 4 38 68 72
10345 4 38 68 74
10346 3 38 68 88
10347 4 38 68 92
10348 4 38 68 94
10349 6 38 68 98
10350 3 42 68 44
10351 2 42 68 48
10352 2 42 68 62
10353 4 42 68 64
10354 2 42 68 72
10355 4 42 68 74
10356 4 42 68 88
10357 3 42 68 92
10358 6 42 68 94
10359 4 42 68 98
10360 2 44 68 48
10361 4 44 68 62
10362 2 44 68 64
10363 4 44 68 72
10364 2 44 68 74
10365 4 44 68 88
10366 6 44 68 92
10367 3 44 68 94
10368 4 44 68 98
10369 4 48 68 62
10370 4 48 68 64
10371 2 48 68 72
10372 2 48 68 74
10373 6 48 68 88
10374 4 48 68 92
10375 4 48 68 94
10376 3 48 68 98
10377 3 62 68 64
10378 3 62 68 72
10379 6 62 68 74
10380 2 62 68 88
10381 2 62 68 92
10382 4 62 68 94
10383 4 62 68 98
10384 6 64 68 72
10385 3 64 68 74
10386 2 64 68 88
10387 4 64 68 92
10388 2 64 68 94
10389 4 64 68 98
10390 3 72 68 74
10391 4 72 68 88
10392 2 72 68 92
10393 4 72 68 94
10394 2 72 68 98
10395 4 74 68 88
10396 4 74 68 92
10397 2 74 68 94
10398 2 74 68 98
10399 2 88 68 92
10400 2 88 68 94
10401 3 88 68 98
10402 3 92 68 94
10403 2 92 68 98
10404 2 94 68 98
10405 3 44 69 64
10406 3 44 69 68
10407 3 44 69 70
10408 3 44 69 74
10409 6 44 69 94
10410 1 44 69 39
10411 1 44 69 43
10412 1 44 69 45
10413 1 44 69 49
10414 3 44 69 63
10415 3 44 69 65
10416 3 44 69 73
10417 3 44 69 75
10418 5 44 69 89
10419 5 44 69 93
10420 5 44 69 95
10421 5 44 69 99
10422 3 64 69 68
10423 3 64 69 70
10424 6 64 69 74
10425 3 64 69 94
10426 1 64 69 39
10427 3 64 69 43
10428 3 64 69 45
10429 5 64 69 49
10430 1 64 69 63
10431 1 64 69 65
10432 5 64 69 73
10433 5 64 69 75
10434 1 64 69 89
10435 3 64 69 93
10436 3 64 69 95
10437 5 64 69 99
10438 6 68 69 70
10439 3 68 69 74
10440 3 68 69 94
10441 3 68 69 39
10442 1 68 69 43
10443 5 68 69 45
10444 3 68 69 49
10445 1 68 69 63
10446 5 68 69 65
10447 1 68 69 73
10448 5 68 69 75
10449 3 68 69 89
10450 1 68 69 93
10451 5 68 69 95
10452 3 68 69 99
10453 3 70 69 74
10454 3 70 69 94
10455 3 70 69 39
10456 5 70 69 43
10457 1 70 69 45
10458 3 70 69 49
10459 5 70 69 63
10460 1 70 69 65
10461 5 70 69 73
10462 1 70 69 75
10463 3 70 69 89
10464 5 70 69 93
10465 1 70 69 95
10466 3 70 69 99
10467 3 74 69 94
10468 5 74 69 39
10469 3 74 69 43
10470 3 74 69 45
10471 1 74 69 49
10472 5 74 69 63
10473 5 74 69 65
10474 1 74 69 73
10475 1 74 69 75
10476 5 74 69 89
10477 3 74 69 93
10478 3 74 69 95
10479 1 74 69 99
10480 5 94 69 39
10481 5 94 69 43
10482 5 94 69 45
10483 5 94 69 49
10484 3 94 69 63
10485 3 94 69 65
10486 3 94 69 73
10487 3 94 69 75
10488 1 94 69 89
10489 1 94 69 93
10490 1 94 69 95
10491 1 94 69 99
10492 2 39 69 43
10493 2 39 69 45
10494 3 39 69 49
10495 2 39 69 63
10496 2 39 69 65
10497 4 39 69 73
10498 4 39 69 75
10499 3 39 69 89
10500 4 39 69 93
10501 4 39 69 95
10502 6 39 69 99
10503 3 43 69 45
10504 2 43 69 49
10505 2 43 69 63
10506 4 43 69 65
10507 2 43 69 73
10508 4 43 69 75
10509 4 43 69 89
10510 3 43 69 93
10511 6 43 69 95
10512 4 43 69 99
10513 2 45 69 49
10514 4 45 69 63
10515 2 45 69 65
10516 4 45 69 73
10517 2 45 69 75
10518 4 45 69 89
10519 6 45 69 93
10520 3 45 69 95
10521 4 45 69 99
10522 4 49 69 63
10523 4 49 69 65
10524 2 49 69 73
10525 2 49 69 75
10526 6 49 69 89
10527 4 49 69 93
10528 4 49 69 95
10529 3 49 69 99
10530 3 63 69 65
10531 3 63 69 73
10532 6 63 69 75
10533 2 63 69 89
10534 2 63 69 93
10535 4 63 69 95
10536 4 63 69 99
10537 6 65 69 73
10538 3 65 69 75
10539 2 65 69 89
10540 4 65 69 93
10541 2 65 69 95
10542 4 65 69 99
10543 3 73 69 75
10544 4 73 69 89
10545 2 73 69 93
10546 4 73 69 95
10547 2 73 69 99
10548 4 75 69 89
10549 4 75 69 93
10550 2 75 69 95
10551 2 75 69 99
10552 2 89 69 93
10553 2 89 69 95
10554 3 89 69 99
10555 3 93 69 95
10556 2 93 69 99
10557 2 95 69 99
10558 3 45 70 65
10559 3 45 70 69
10560 3 45 70 66
10561 3 45 70 75
10562 6 45 70 95
10563 1 45 70 40
10564 1 45 70 44
10565 1 45 70 41
10566 1 45 70 50
10567 3 45 70 64
10568 3 45 70 61
10569 3 45 70 74
10570 3 45 70 71
10571 5 45 70 90
10572 5 45 70 94
10573 5 45 70 91
10574 5 45 70 100
10575 3 65 70 69
10576 3 65 70 66
10577 6 65 70 75
10578 3 65 70 95
10579 1 65 70 40
10580 3 65 70 44
10581 3 65 70 41
10582 5 65 70 50
10583 1 65 70 64
10584 1 65 70 61
10585 5 65 70 74
10586 5 65 70 71
10587 1 65 70 90
10588 3 65 70 94
10589 3 65 70 91
10590 5 65 70 100
10591 6 69 70 66
10592 3 69 70 75
10593 3 69 70 95
10594 3 69 70 40
10595 1 69 70 44
10596 5 69 70 41
10597 3 69 70 50
10598 1 69 70 64
10599 5 69 70 61
10600 1 69 70 74
10601 5 69 70 71
10602 3 69 70 90
10603 1 69 70 94
10604 5 69 70 91
10605 3 69 70 100
10606 3 66 70 75
10607 3 66 70 95
10608 3 66 70 40
10609 5 66 70 44
10610 1 66 70 41
10611 3 66 70 50
10612 5 66 70 64
10613 1 66 70 61
10614 5 66 70 74
10615 1 66 70 71
10616 3 66 70 90
10617 5 66 70 94
10618 1 66 70 91
10619 3 66 70 100
10620 3 75 70 95
10621 5 75 70 40
10622 3 75 70 44
10623 3 75 70 41
10624 1 75 70 50
10625 5 75 70 64
10626 5 75 70 61
10627 1 75 70 74
10628 1 75 70 71
10629 5 75 70 90
10630 3 75 70 94
10631 3 75 70 91
10632 1 75 70 100
10633 5 95 70 40
10634 5 95 70 44
10635 5 95 70 41
10636 5 95 70 50
10637 3 95 70 64
10638 3 95 70 61
10639 3 95 70 74
10640 3 95 70 71
10641 1 95 70 90
10642 1 95 70 94
10643 1 95 70 91
10644 1 95 70 100
10645 2 40 70 44
10646 2 40 70 41
10647 3 40 70 50
10648 2 40 70 64
10649 2 40 70 61
10650 4 40 70 74
10651 4 40 70 71
10652 3 40 70 90
10653 4 40 70 94
10654 4 40 70 91
10655 6 40 70 100
10656 3 44 70 41
10657 2 44 70 50
10658 2 44 70 64
10659 4 44 70 61
10660 2 44 70 74
10661 4 44 70 71
10662 4 44 70 90
10663 3 44 70 94
10664 6 44 70 91
10665 4 44 70 100
10666 2 41 70 50
10667 4 41 70 64
10668 2 41 70 61
10669 4 41 70 74
10670 2 41 70 71
10671 4 41 70 90
10672 6 41 70 94
10673 3 41 70 91
10674 4 41 70 100
10675 4 50 70 64
10676 4 50 70 61
10677 2 50 70 74
10678 2 50 70 71
10679 6 50 70 90
10680 4 50 70 94
10681 4 50 70 91
10682 3 50 70 100
10683 3 64 70 61
10684 3 64 70 74
10685 6 64 70 71
10686 2 64 70 90
10687 2 64 70 94
10688 4 64 70 91
10689 4 64 70 100
10690 6 61 70 74
10691 3 61 70 71
10692 2 61 70 90
10693 4 61 70 94
10694 2 61 70 91
10695 4 61 70 100
10696 3 74 70 71
10697 4 74 70 90
10698 2 74 70 94
10699 4 74 70 91
10700 2 74 70 100
10701 4 71 70 90
10702 4 71 70 94
10703 2 71 70 91
10704 2 71 70 100
10705 2 90 70 94
10706 2 90 70 91
10707 3 90 70 100
10708 3 94 70 91
10709 2 94 70 100
10710 2 91 70 100
10711 3 46 71 66
10712 3 46 71 75
10713 3 46 71 72
10714 3 46 71 51
10715 6 46 71 96
10716 1 46 71 41
10717 1 46 71 50
10718 1 46 71 47
10719 1 46 71 26
10720 3 46 71 70
10721 3 46 71 67
10722 3 46 71 55
10723 3 46 71 52
10724 5 46 71 91
10725 5 46 71 100
10726 5 46 71 97
10727 5 46 71 76
10728 3 66 71 75
10729 3 66 71 72
10730 6 66 71 51
10731 3 66 71 96
10732 1 66 71 41
10733 3 66 71 50
10734 3 66 71 47
10735 5 66 71 26
10736 1 66 71 70
10737 1 66 71 67
10738 5 66 71 55
10739 5 66 71 52
10740 1 66 71 91
10741 3 66 71 100
10742 3 66 71 97
10743 5 66 71 76
10744 6 75 71 72
10745 3 75 71 51
10746 3 75 71 96
10747 3 75 71 41
10748 1 75 71 50
10749 5 75 71 47
10750 3 75 71 26
10751 1 75 71 70
10752 5 75 71 67
10753 1 75 71 55
10754 5 75 71 52
10755 3 75 71 91
10756 1 75 71 100
10757 5 75 71 97
10758 3 75 71 76
10759 3 72 71 51
10760 3 72 71 96
10761 3 72 71 41
10762 5 72 71 50
10763 1 72 71 47
10764 3 72 71 26
10765 5 72 71 70
10766 1 72 71 67
10767 5 72 71 55
10768 1 72 71 52
10769 3 72 71 91
10770 5 72 71 100
10771 1 72 71 97
10772 3 72 71 76
10773 3 51 71 96
10774 5 51 71 41
10775 3 51 71 50
10776 3 51 71 47
10777 1 51 71 26
10778 5 51 71 70
10779 5 51 71 67
10780 1 51 71 55
10781 1 51 71 52
10782 5 51 71 91
10783 3 51 71 100
10784 3 51 71 97
10785 1 51 71 76
10786 5 96 71 41
10787 5 96 71 50
10788 5 96 71 47
10789 5 96 71 26
10790 3 96 71 70
10791 3 96 71 67
10792 3 96 71 55
10793 3 96 71 52
10794 1 96 71 91
10795 1 96 71 100
10796 1 96 71 97
10797 1 96 71 76
10798 2 41 71 50
10799 2 41 71 47
10800 3 41 71 26
10801 2 41 71 70
10802 2 41 71 67
10803 4 41 71 55
10804 4 41 71 52
10805 3 41 71 91
10806 4 41 71 100
10807 4 41 71 97
10808 6 41 71 76
10809 3 50 71 47
10810 2 50 71 26
10811 2 50 71 70
10812 4 50 71 67
10813 2 50 71 55
10814 4 50 71 52
10815 4 50 71 91
10816 3 50 71 100
10817 6 50 71 97
10818 4 50 71 76
10819 2 47 71 26
10820 4 47 71 70
10821 2 47 71 67
10822 4 47 71 55
10823 2 47 71 52
10824 4 47 71 91
10825 6 47 71 100
10826 3 47 71 97
10827 4 47 71 76
10828 4 26 71 70
10829 4 26 71 67
10830 2 26 71 55
10831 2 26 71 52
10832 6 26 71 91
10833 4 26 71 100
10834 4 26 71 97
10835 3 26 71 76
10836 3 70 71 67
10837 3 70 71 55
10838 6 70 71 52
10839 2 70 71 91
10840 2 70 71 100
10841 4 70 71 97
10842 4 70 71 76
10843 6 67 71 55
10844 3 67 71 52
10845 2 67 71 91
10846 4 67 71 100
10847 2 67 71 97
10848 4 67 71 76
10849 3 55 71 52
10850 4 55 71 91
10851 2 55 71 100
10852 4 55 71 97
10853 2 55 71 76
10854 4 52 71 91
10855 4 52 71 100
10856 2 52 71 97
10857 2 52 71 76
10858 2 91 71 100
10859 2 91 71 97
10860 3 91 71 76
10861 3 100 71 97
10862 2 100 71 76
10863 2 97 71 76
10864 3 47 72 67
10865 3 47 72 71
10866 3 47 72 73
10867 3 47 72 52
10868 6 47 72 97
10869 1 47 72 42
10870 1 47 72 46
10871 1 47 72 48
10872 1 47 72 27
10873 3 47 72 66
10874 3 47 72 68
10875 3 47 72 51
10876 3 47 72 53
10877 5 47 72 92
10878 5 47 72 96
10879 5 47 72 98
10880 5 47 72 77
10881 3 67 72 71
10882 3 67 72 73
10883 6 67 72 52
10884 3 67 72 97
10885 1 67 72 42
10886 3 67 72 46
10887 3 67 72 48
10888 5 67 72 27
10889 1 67 72 66
10890 1 67 72 68
10891 5 67 72 51
10892 5 67 72 53
10893 1 67 72 92
10894 3 67 72 96
10895 3 67 72 98
10896 5 67 72 77
10897 6 71 72 73
10898 3 71 72 52
10899 3 71 72 97
10900 3 71 72 42
10901 1 71 72 46
10902 5 71 72 48
10903 3 71 72 27
10904 1 71 72 66
10905 5 71 72 68
10906 1 71 72 51
10907 5 71 72 53
10908 3 71 72 92
10909 1 71 72 96
10910 5 71 72 98
10911 3 71 72 77
10912 3 73 72 52
10913 3 73 72 97
10914 3 73 72 42
10915 5 73 72 46
10916 1 73 72 48
10917 3 73 72 27
10918 5 73 72 66
10919 1 73 72 68
10920 5 73 72 51
10921 1 73 72 53
10922 3 73 72 92
10923 5 73 72 96
10924 1 73 72 98
10925 3 73 72 77
10926 3 52 72 97
10927 5 52 72 42
10928 3 52 72 46
10929 3 52 72 48
10930 1 52 72 27
10931 5 52 72 66
10932 5 52 72 68
10933 1 52 72 51
10934 1 52 72 53
10935 5 52 72 92
10936 3 52 72 96
10937 3 52 72 98
10938 1 52 72 77
10939 5 97 72 42
10940 5 97 72 46
10941 5 97 72 48
10942 5 97 72 27
10943 3 97 72 66
10944 3 97 72 68
10945 3 97 72 51
10946 3 97 72 53
10947 1 97 72 92
10948 1 97 72 96
10949 1 97 72 98
10950 1 97 72 77
10951 2 42 72 46
10952 2 42 72 48
10953 3 42 72 27
10954 2 42 72 66
10955 2 42 72 68
10956 4 42 72 51
10957 4 42 72 53
10958 3 42 72 92
10959 4 42 72 96
10960 4 42 72 98
10961 6 42 72 77
10962 3 46 72 48
10963 2 46 72 27
10964 2 46 72 66
10965 4 46 72 68
10966 2 46 72 51
10967 4 46 72 53
10968 4 46 72 92
10969 3 46 72 96
10970 6 46 72 98
10971 4 46 72 77
10972 2 48 72 27
10973 4 48 72 66
10974 2 48 72 68
10975 4 48 72 51
10976 2 48 72 53
10977 4 48 72 92
10978 6 48 72 96
10979 3 48 72 98
10980 4 48 72 77
10981 4 27 72 66
10982 4 27 72 68
10983 2 27 72 51
10984 2 27 72 53
10985 6 27 72 92
10986 4 27 72 96
10987 4 27 72 98
10988 3 27 72 77
10989 3 66 72 68
10990 3 66 72 51
10991 6 66 72 53
10992 2 66 72 92
10993 2 66 72 96
10994 4 66 72 98
10995 4 66 72 77
10996 6 68 72 51
10997 3 68 72 53
10998 2 68 72 92
10999 4 68 72 96
11000 2 68 72 98
11001 4 68 72 77
11002 3 51 72 53
11003 4 51 72 92
11004 2 51 72 96
11005 4 51 72 98
11006 2 51 72 77
11007 4 53 72 92
11008 4 53 72 96
11009 2 53 72 98
11010 2 53 72 77
11011 2 92 72 96
11012 2 92 72 98
11013 3 92 72 77
11014 3 96 72 98
11015 2 96 72 77
11016 2 98 72 77
11017 3 48 73 68
11018 3 48 73 72
11019 3 48 73 74
11020 3 48 73 53
11021 6 48 73 98
11022 1 48 73 43
11023 1 48 73 47
11024 1 48 73 49
11025 1 48 73 28
11026 3 48 73 67
11027 3 48 73 69
11028 3 48 73 52
11029 3 48 73 54
11030 5 48 73 93
11031 5 48 73 97
11032 5 48 73 99
11033 5 48 73 78
11034 3 68 73 72
11035 3 68 73 74
11036 6 68 73 53
11037 3 68 73 98
11038 1 68 73 43
11039 3 68 73 47
11040 3 68 73 49
11041 5 68 73 28
11042 1 68 73 67
11043 1 68 73 69
11044 5 68 73 52
11045 5 68 73 54
11046 1 68 73 93
11047 3 68 73 97
11048 3 68 73 99
11049 5 68 73 78
11050 6 72 73 74
11051 3 72 73 53
11052 3 72 73 98
11053 3 72 73 43
11054 1 72 73 47
11055 5 72 73 49
11056 3 72 73 28
11057 1 72 73 67
11058 5 72 73 69
11059 1 72 73 52
11060 5 72 73 54
11061 3 72 73 93
11062 1 72 73 97
11063 5 72 73 99
11064 3 72 73 78
11065 3 74 73 53
11066 3 74 73 98
11067 3 74 73 43
11068 5 74 73 47
11069 1 74 73 49
11070 3 74 73 28
11071 5 74 73 67
11072 1 74 73 69
11073 5 74 73 52
11074 1 74 73 54
11075 3 74 73 93
11076 5 74 73 97
11077 1 74 73 99
11078 3 74 73 78
11079 3 53 73 98
11080 5 53 73 43
11081 3 53 73 47
11082 3 53 73 49
11083 1 53 73 28
11084 5 53 73 67
11085 5 53 73 69
11086 1 53 73 52
11087 1 53 73 54
11088 5 53 73 93
11089 3 53 73 97
11090 3 53 73 99
11091 1 53 73 78
11092 5 98 73 43
11093 5 98 73 47
11094 5 98 73 49
11095 5 98 73 28
11096 3 98 73 67
11097 3 98 73 69
11098 3 98 73 52
11099 3 98 73 54
11100 1 98 73 93
11101 1 98 73 97
11102 1 98 73 99
11103 1 98 73 78
11104 2 43 73 47
11105 2 43 73 49
11106 3 43 73 28
11107 2 43 73 67
11108 2 43 73 69
11109 4 43 73 52
11110 4 43 73 54
11111 3 43 73 93
11112 4 43 73 97
11113 4 43 73 99
11114 6 43 73 78
11115 3 47 73 49
11116 2 47 73 28
11117 2 47 73 67
11118 4 47 73 69
11119 2 47 73 52
11120 4 47 73 54
11121 4 47 73 93
11122 3 47 73 97
11123 6 47 73 99
11124 4 47 73 78
11125 2 49 73 28
11126 4 49 73 67
11127 2 49 73 69
11128 4 49 73 52
11129 2 49 73 54
11130 4 49 73 93
11131 6 49 73 97
11132 3 49 73 99
11133 4 49 73 78
11134 4 28 73 67
11135 4 28 73 69
11136 2 28 73 52
11137 2 28 73 54
11138 6 28 73 93
11139 4 28 73 97
11140 4 28 73 99
11141 3 28 73 78
11142 3 67 73 69
11143 3 67 73 52
11144 6 67 73 54
11145 2 67 73 93
11146 2 67 73 97
11147 4 67 73 99
11148 4 67 73 78
11149 6 69 73 52
11150 3 69 73 54
11151 2 69 73 93
11152 4 69 73 97
11153 2 69 73 99
11154 4 69 73 78
11155 3 52 73 54
11156 4 52 73 93
11157 2 52 73 97
11158 4 52 73 99
11159 2 52 73 78
11160 4 54 73 93
11161 4 54 73 97
11162 2 54 73 99
11163 2 54 73 78
11164 2 93 73 97
11165 2 93 73 99
11166 3 93 73 78
11167 3 97 73 99
11168 2 97 73 78
11169 2 99 73 78
11170 3 49 74 69
11171 3 49 74 73
11172 3 49 74 75
11173 3 49 74 54
11174 6 49 74 99
11175 1 49 74 44
11176 1 49 74 48
11177 1 49 74 50
11178 1 49 74 29
11179 3 49 74 68
11180 3 49 74 70
11181 3 49 74 53
11182 3 49 74 55
11183 5 49 74 94
11184 5 49 74 98
11185 5 49 74 100
11186 5 49 74 79
11187 3 69 74 73
11188 3 69 74 75
11189 6 69 74 54
11190 3 69 74 99
11191 1 69 74 44
11192 3 69 74 48
11193 3 69 74 50
11194 5 69 74 29
11195 1 69 74 68
11196 1 69 74 70
11197 5 69 74 53
11198 5 69 74 55
11199 1 69 74 94
11200 3 69 74 98
11201 3 69 74 100
11202 5 69 74 79
11203 6 73 74 75
11204 3 73 74 54
11205 3 73 74 99
11206 3 73 74 44
11207 1 73 74 48
11208 5 73 74 50
11209 3 73 74 29
11210 1 73 74 68
11211 5 73 74 70
11212 1 73 74 53
11213 5 73 74 55
11214 3 73 74 94
11215 1 73 74 98
11216 5 73 74 100
11217 3 73 74 79
11218 3 75 74 54
11219 3 75 74 99
11220 3 75 74 44
11221 5 75 74 48
11222 1 75 74 50
11223 3 75 74 29
11224 5 75 74 68
11225 1 75 74 70
11226 5 75 74 53
11227 1 75 74 55
11228 3 75 74 94
11229 5 75 74 98
11230 1 75 74 100
11231 3 75 74 79
11232 3 54 74 99
11233 5 54 74 44
11234 3 54 74 48
11235 3 54 74 50
11236 1 54 74 29
11237 5 54 74 68
11238 5 54 74 70
11239 1 54 74 53
11240 1 54 74 55
11241 5 54 74 94
11242 3 54 74 98
11243 3 54 74 100
11244 1 54 74 79
11245 5 99 74 44
11246 5 99 74 48
11247 5 99 74 50
11248 5 99 74 29
11249 3 99 74 68
11250 3 99 74 70
11251 3 99 74 53
11252 3 99 74 55
11253 1 99 74 94
11254 1 99 74 98
11255 1 99 74 100
11256 1 99 74 79
11257 2 44 74 48
11258 2 44 74 50
11259 3 44 74 29
11260 2 44 74 68
11261 2 44 74 70
11262 4 44 74 53
11263 4 44 74 55
11264 3 44 74 94
11265 4 44 74 98
11266 4 44 74 100
11267 6 44 74 79
11268 3 48 74 50
11269 2 48 74 29
11270 2 48 74 68
11271 4 48 74 70
11272 2 48 74 53
11273 4 48 74 55
11274 4 48 74 94
11275 3 48 74 98
11276 6 48 74 100
11277 4 48 74 79
11278 2 50 74 29
11279 4 50 74 68
11280 2 50 74 70
11281 4 50 74 53
11282 2 50 74 55
11283 4 50 74 94
11284 6 50 74 98
11285 3 50 74 100
11286 4 50 74 79
11287 4 29 74 68
11288 4 29 74 70
11289 2 29 74 53
11290 2 29 74 55
11291 6 29 74 94
11292 4 29 74 98
11293 4 29 74 100
11294 3 29 74 79
11295 3 68 74 70
11296 3 68 74 53
11297 6 68 74 55
11298 2 68 74 94
11299 2 68 74 98
11300 4 68 74 100
11301 4 68 74 79
11302 6 70 74 53
11303 3 70 74 55
11304 2 70 74 94
11305 4 70 74 98
11306 2 70 74 100
11307 4 70 74 79
11308 3 53 74 55
11309 4 53 74 94
11310 2 53 74 98
11311 4 53 74 100
11312 2 53 74 79
11313 4 55 74 94
11314 4 55 74 98
11315 2 55 74 100
11316 2 55 74 79
11317 2 94 74 98
11318 2 94 74 100
11319 3 94 74 79
11320 3 98 74 100
11321 2 98 74 79
11322 2 100 74 79
11323 3 50 75 70
11324 3 50 75 74
11325 3 50 75 71
11326 3 50 75 55
11327 6 50 75 100
11328 1 50 75 45
11329 1 50 75 49
11330 1 50 75 46
11331 1 50 75 30
11332 3 50 75 69
11333 3 50 75 66
11334 3 50 75 54
11335 3 50 75 51
11336 5 50 75 95
11337 5 50 75 99
11338 5 50 75 96
11339 5 50 75 80
11340 3 70 75 74
11341 3 70 75 71
11342 6 70 75 55
11343 3 70 75 100
11344 1 70 75 45
11345 3 70 75 49
11346 3 70 75 46
11347 5 70 75 30
11348 1 70 75 69
11349 1 70 75 66
11350 5 70 75 54
11351 5 70 75 51
11352 1 70 75 95
11353 3 70 75 99
11354 3 70 75 96
11355 5 70 75 80
11356 6 74 75 71
11357 3 74 75 55
11358 3 74 75 100
11359 3 74 75 45
11360 1 74 75 49
11361 5 74 75 46
11362 3 74 75 30
11363 1 74 75 69
11364 5 74 75 66
11365 1 74 75 54
11366 5 74 75 51
11367 3 74 75 95
11368 1 74 75 99
11369 5 74 75 96
11370 3 74 75 80
11371 3 71 75 55
11372 3 71 75 100
11373 3 71 75 45
11374 5 71 75 49
11375 1 71 75 46
11376 3 71 75 30
11377 5 71 75 69
11378 1 71 75 66
11379 5 71 75 54
11380 1 71 75 51
11381 3 71 75 95
11382 5 71 75 99
11383 1 71 75 96
11384 3 71 75 80
11385 3 55 75 100
11386 5 55 75 45
11387 3 55 75 49
11388 3 55 75 46
11389 1 55 75 30
11390 5 55 75 69
11391 5 55 75 66
11392 1 55 75 54
11393 1 55 75 51
11394 5 55 75 95
11395 3 55 75 99
11396 3 55 75 96
11397 1 55 75 80
11398 5 100 75 45
11399 5 100 75 49
11400 5 100 75 46
11401 5 100 75 30
11402 3 100 75 69
11403 3 100 75 66
11404 3 100 75 54
11405 3 100 75 51
11406 1 100 75 95
11407 1 100 75 99
11408 1 100 75 96
11409 1 100 75 80
11410 2 45 75 49
11411 2 45 75 46
11412 3 45 75 30
11413 2 45 75 69
11414 2 45 75 66
11415 4 45 75 54
11416 4 45 75 51
11417 3 45 75 95
11418 4 45 75 99
11419 4 45 75 96
11420 6 45 75 80
11421 3 49 75 46
11422 2 49 75 30
11423 2 49 75 69
11424 4 49 75 66
11425 2 49 75 54
11426 4 49 75 51
11427 4 49 75 95
11428 3 49 75 99
11429 6 49 75 96
11430 4 49 75 80
11431 2 46 75 30
11432 4 46 75 69
11433 2 46 75 66
11434 4 46 75 54
11435 2 46 75 51
11436 4 46 75 95
11437 6 46 75 99
11438 3 46 75 96
11439 4 46 75 80
11440 4 30 75 69
11441 4 30 75 66
11442 2 30 75 54
11443 2 30 75 51
11444 6 30 75 95
11445 4 30 75 99
11446 4 30 75 96
11447 3 30 75 80
11448 3 69 75 66
11449 3 69 75 54
11450 6 69 75 51
11451 2 69 75 95
11452 2 69 75 99
11453 4 69 75 96
11454 4 69 75 80
11455 6 66 75 54
11456 3 66 75 51
11457 2 66 75 95
11458 4 66 75 99
11459 2 66 75 96
11460 4 66 75 80
11461 3 54 75 51
11462 4 54 75 95
11463 2 54 75 99
11464 4 54 75 96
11465 2 54 75 80
11466 4 51 75 95
11467 4 51 75 99
11468 2 51 75 96
11469 2 51 75 80
11470 2 95 75 99
11471 2 95 75 96
11472 3 95 75 80
11473 3 99 75 96
11474 2 99 75 80
11475 2 96 75 80
11476 3 51 76 96
11477 3 51 76 80
11478 3 51 76 77
11479 3 51 76 81
11480 6 51 76 101
11481 1 51 76 71
11482 1 51 76 55
11483 1 51 76 52
11484 1 51 76 56
11485 3 51 76 100
11486 3 51 76 97
11487 3 51 76 85
11488 3 51 76 82
11489 5 51 76 121
11490 5 51 76 105
11491 5 51 76 102
11492 5 51 76 106
11493 3 96 76 80
11494 3 96 76 77
11495 6 96 76 81
11496 3 96 76 101
11497 1 96 76 71
11498 3 96 76 55
11499 3 96 76 52
11500 5 96 76 56
11501 1 96 76 100
11502 1 96 76 97
11503 5 96 76 85
11504 5 96 76 82
11505 1 96 76 121
11506 3 96 76 105
11507 3 96 76 102
11508 5 96 76 106
11509 6 80 76 77
11510 3 80 76 81
11511 3 80 76 101
11512 3 80 76 71
11513 1 80 76 55
11514 5 80 76 52
11515 3 80 76 56
11516 1 80 76 100
11517 5 80 76 97
11518 1 80 76 85
11519 5 80 76 82
11520 3 80 76 121
11521 1 80 76 105
11522 5 80 76 102
11523 3 80 76 106
11524 3 77 76 81
11525 3 77 76 101
11526 3 77 76 71
11527 5 77 76 55
11528 1 77 76 52
11529 3 77 76 56
11530 5 77 76 100
11531 1 77 76 97
11532 5 77 76 85
11533 1 77 76 82
11534 3 77 76 121
11535 5 77 76 105
11536 1 77 76 102
11537 3 77 76 106
11538 3 81 76 101
11539 5 81 76 71
11540 3 81 76 55
11541 3 81 76 52
11542 1 81 76 56
11543 5 81 76 100
11544 5 81 76 97
11545 1 81 76 85
11546 1 81 76 82
11547 5 81 76 121
11548 3 81 76 105
11549 3 81 76 102
11550 1 81 76 106
11551 5 101 76 71
11552 5 101 76 55
11553 5 101 76 52
11554 5 101 76 56
11555 3 101 76 100
11556 3 101 76 97
11557 3 101 76 85
11558 3 101 76 82
11559 1 101 76 121
11560 1 101 76 105
11561 1 101 76 102
11562 1 101 76 106
11563 2 71 76 55
11564 2 71 76 52
11565 3 71 76 56
11566 2 71 76 100
11567 2 71 76 97
11568 4 71 76 85
11569 4 71 76 82
11570 3 71 76 121
11571 4 71 76 105
11572 4 71 76 102
11573 6 71 76 106
11574 3 55 76 52
11575 2 55 76 56
11576 2 55 76 100
11577 4 55 76 97
11578 2 55 76 85
11579 4 55 76 82
11580 4 55 76 121
11581 3 55 76 105
11582 6 55 76 102
11583 4 55 76 106
11584 2 52 76 56
11585 4 52 76 100
11586 2 52 76 97
11587 4 52 76 85
11588 2 52 76 82
11589 4 52 76 121
11590 6 52 76 105
11591 3 52 76 102
11592 4 52 76 106
11593 4 56 76 100
11594 4 56 76 97
11595 2 56 76 85
11596 2 56 76 82
11597 6 56 76 121
11598 4 56 76 105
11599 4 56 76 102
11600 3 56 76 106
11601 3 100 76 97
11602 3 100 76 85
11603 6 100 76 82
11604 2 100 76 121
11605 2 100 76 105
11606 4 100 76 102
11607 4 100 76 106
11608 6 97 76 85
11609 3 97 76 82
11610 2 97 76 121
11611 4 97 76 105
11612 2 97 76 102
11613 4 97 76 106
11614 3 85 76 82
11615 4 85 76 121
11616 2 85 76 105
11617 4 85 76 102
11618 2 85 76 106
11619 4 82 76 121
11620 4 82 76 105
11621 2 82 76 102
11622 2 82 76 106
11623 2 121 76 105
11624 2 121 76 102
11625 3 121 76 106
11626 3 105 76 102
11627 2 105 76 106
11628 2 102 76 106
11629 3 52 77 97
11630 3 52 77 76
11631 3 52 77 78
11632 3 52 77 82
11633 6 52 77 102
11634 1 52 77 72
11635 1 52 77 51
11636 1 52 77 53
11637 1 52 77 57
11638 3 52 77 96
11639 3 52 77 98
11640 3 52 77 81
11641 3 52 77 83
11642 5 52 77 122
11643 5 52 77 101
11644 5 52 77 103
11645 5 52 77 107
11646 3 97 77 76
11647 3 97 77 78
11648 6 97 77 82
11649 3 97 77 102
11650 1 97 77 72
11651 3 97 77 51
11652 3 97 77 53
11653 5 97 77 57
11654 1 97 77 96
11655 1 97 77 98
11656 5 97 77 81
11657 5 97 77 83
11658 1 97 77 122
11659 3 97 77 101
11660 3 97 77 103
11661 5 97 77 107
11662 6 76 77 78
11663 3 76 77 82
11664 3 76 77 102
11665 3 76 77 72
11666 1 76 77 51
11667 5 76 77 53
11668 3 76 77 57
11669 1 76 77 96
11670 5 76 77 98
11671 1 76 77 81
11672 5 76 77 83
11673 3 76 77 122
11674 1 76 77 101
11675 5 76 77 103
11676 3 76 77 107
11677 3 78 77 82
11678 3 78 77 102
11679 3 78 77 72
11680 5 78 77 51
11681 1 78 77 53
11682 3 78 77 57
11683 5 78 77 96
11684 1 78 77 98
11685 5 78 77 81
11686 1 78 77 83
11687 3 78 77 122
11688 5 78 77 101
11689 1 78 77 103
11690 3 78 77 107
11691 3 82 77 102
11692 5 82 77 72
11693 3 82 77 51
11694 3 82 77 53
11695 1 82 77 57
11696 5 82 77 96
11697 5 82 77 98
11698 1 82 77 81
11699 1 82 77 83
11700 5 82 77 122
11701 3 82 77 101
11702 3 82 77 103
11703 1 82 77 107
11704 5 102 77 72
11705 5 102 77 51
11706 5 102 77 53
11707 5 102 77 57
11708 3 102 77 96
11709 3 102 77 98
11710 3 102 77 81
11711 3 102 77 83
11712 1 102 77 122
11713 1 102 77 101
11714 1 102 77 103
11715 1 102 77 107
11716 2 72 77 51
11717 2 72 77 53
11718 3 72 77 57
11719 2 72 77 96
11720 2 72 77 98
11721 4 72 77 81
11722 4 72 77 83
11723 3 72 77 122
11724 4 72 77 101
11725 4 72 77 103
11726 6 72 77 107
11727 3 51 77 53
11728 2 51 77 57
11729 2 51 77 96
11730 4 51 77 98
11731 2 51 77 81
11732 4 51 77 83
11733 4 51 77 122
11734 3 51 77 101
11735 6 51 77 103
11736 4 51 77 107
11737 2 53 77 57
11738 4 53 77 96
11739 2 53 77 98
11740 4 53 77 81
11741 2 53 77 83
11742 4 53 77 122
11743 6 53 77 101
11744 3 53 77 103
11745 4 53 77 107
11746 4 57 77 96
11747 4 57 77 98
11748 2 57 77 81
11749 2 57 77 83
11750 6 57 77 122
11751 4 57 77 101
11752 4 57 77 103
11753 3 57 77 107
11754 3 96 77 98
11755 3 96 77 81
11756 6 96 77 83
11757 2 96 77 122
11758 2 96 77 101
11759 4 96 77 103
11760 4 96 77 107
11761 6 98 77 81
11762 3 98 77 83
11763 2 98 77 122
11764 4 98 77 101
11765 2 98 77 103
11766 4 98 77 107
11767 3 81 77 83
11768 4 81 77 122
11769 2 81 77 101
11770 4 81 77 103
11771 2 81 77 107
11772 4 83 77 122
11773 4 83 77 101
11774 2 83 77 103
11775 2 83 77 107
11776 2 122 77 101
11777 2 122 77 103
11778 3 122 77 107
11779 3 101 77 103
11780 2 101 77 107
11781 2 103 77 107
11782 3 53 78 98
11783 3 53 78 77
11784 3 53 78 79
11785 3 53 78 83
11786 6 53 78 103
11787 1 53 78 73
11788 1 53 78 52
11789 1 53 78 54
11790 1 53 78 58
11791 3 53 78 97
11792 3 53 78 99
11793 3 53 78 82
11794 3 53 78 84
11795 5 53 78 123
11796 5 53 78 102
11797 5 53 78 104
11798 5 53 78 108
11799 3 98 78 77
11800 3 98 78 79
11801 6 98 78 83
11802 3 98 78 103
11803 1 98 78 73
11804 3 98 78 52
11805 3 98 78 54
11806 5 98 78 58
11807 1 98 78 97
11808 1 98 78 99
11809 5 98 78 82
11810 5 98 78 84
11811 1 98 78 123
11812 3 98 78 102
11813 3 98 78 104
11814 5 98 78 108
11815 6 77 78 79
11816 3 77 78 83
11817 3 77 78 103
11818 3 77 78 73
11819 1 77 78 52
11820 5 77 78 54
11821 3 77 78 58
11822 1 77 78 97
11823 5 77 78 99
11824 1 77 78 82
11825 5 77 78 84
11826 3 77 78 123
11827 1 77 78 102
11828 5 77 78 104
11829 3 77 78 108
11830 3 79 78 83
11831 3 79 78 103
11832 3 79 78 73
11833 5 79 78 52
11834 1 79 78 54
11835 3 79 78 58
11836 5 79 78 97
11837 1 79 78 99
11838 5 79 78 82
11839 1 79 78 84
11840 3 79 78 123
11841 5 79 78 102
11842 1 79 78 104
11843 3 79 78 108
11844 3 83 78 103
11845 5 83 78 73
11846 3 83 78 52
11847 3 83 78 54
11848 1 83 78 58
11849 5 83 78 97
11850 5 83 78 99
11851 1 83 78 82
11852 1 83 78 84
11853 5 83 78 123
11854 3 83 78 102
11855 3 83 78 104
11856 1 83 78 108
11857 5 103 78 73
11858 5 103 78 52
11859 5 103 78 54
11860 5 103 78 58
11861 3 103 78 97
11862 3 103 78 99
11863 3 103 78 82
11864 3 103 78 84
11865 1 103 78 123
11866 1 103 78 102
11867 1 103 78 104
11868 1 103 78 108
11869 2 73 78 52
11870 2 73 78 54
11871 3 73 78 58
11872 2 73 78 97
11873 2 73 78 99
11874 4 73 78 82
11875 4 73 78 84
11876 3 73 78 123
11877 4 73 78 102
11878 4 73 78 104
11879 6 73 78 108
11880 3 52 78 54
11881 2 52 78 58
11882 2 52 78 97
11883 4 52 78 99
11884 2 52 78 82
11885 4 52 78 84
11886 4 52 78 123
11887 3 52 78 102
11888 6 52 78 104
11889 4 52 78 108
11890 2 54 78 58
11891 4 54 78 97
11892 2 54 78 99
11893 4 54 78 82
11894 2 54 78 84
11895 4 54 78 123
11896 6 54 78 102
11897 3 54 78 104
11898 4 54 78 108
11899 4 58 78 97
11900 4 58 78 99
11901 2 58 78 82
11902 2 58 78 84
11903 6 58 78 123
11904 4 58 78 102
11905 4 58 78 104
11906 3 58 78 108
11907 3 97 78 99
11908 3 97 78 82
11909 6 97 78 84
11910 2 97 78 123
11911 2 97 78 102
11912 4 97 78 104
11913 4 97 78 108
11914 6 99 78 82
11915 3 99 78 84
11916 2 99 78 123
11917 4 99 78 102
11918 2 99 78 104
11919 4 99 78 108
11920 3 82 78 84
11921 4 82 78 123
11922 2 82 78 102
11923 4 82 78 104
11924 2 82 78 108
11925 4 84 78 123
11926 4 84 78 102
11927 2 84 78 104
11928 2 84 78 108
11929 2 123 78 102
11930 2 123 78 104
11931 3 123 78 108
11932 3 102 78 104
11933 2 102 78 108
11934 2 104 78 108
11935 3 54 79 99
11936 3 54 79 78
11937 3 54 79 80
11938 3 54 79 84
11939 6 54 79 104
11940 1 54 79 74
11941 1 54 79 53
11942 1 54 79 55
11943 1 54 79 59
11944 3 54 79 98
11945 3 54 79 100
11946 3 54 79 83
11947 3 54 79 85
11948 5 54 79 124
11949 5 54 79 103
11950 5 54 79 105
11951 5 54 79 109
11952 3 99 79 78
11953 3 99 79 80
11954 6 99 79 84
11955 3 99 79 104
11956 1 99 79 74
11957 3 99 79 53
11958 3 99 79 55
11959 5 99 79 59
11960 1 99 79 98
11961 1 99 79 100
11962 5 99 79 83
11963 5 99 79 85
11964 1 99 79 124
11965 3 99 79 103
11966 3 99 79 105
11967 5 99 79 109
11968 6 78 79 80
11969 3 78 79 84
11970 3 78 79 104
11971 3 78 79 74
11972 1 78 79 53
11973 5 78 79 55
11974 3 78 79 59
11975 1 78 79 98
11976 5 78 79 100
11977 1 78 79 83
11978 5 78 79 85
11979 3 78 79 124
11980 1 78 79 103
11981 5 78 79 105
11982 3 78 79 109
11983 3 80 79 84
11984 3 80 79 104
11985 3 80 79 74
11986 5 80 79 53
11987 1 80 79 55
11988 3 80 79 59
11989 5 80 79 98
11990 1 80 79 100
11991 5 80 79 83
11992 1 80 79 85
11993 3 80 79 124
11994 5 80 79 103
11995 1 80 79 105
11996 3 80 79 109
11997 3 84 79 104
11998 5 84 79 74
11999 3 84 79 53
12000 3 84 79 55
12001 1 84 79 59
12002 5 84 79 98
12003 5 84 79 100
12004 1 84 79 83
12005 1 84 79 85
12006 5 84 79 124
12007 3 84 79 103
12008 3 84 79 105
12009 1 84 79 109
12010 5 104 79 74
12011 5 104 79 53
12012 5 104 79 55
12013 5 104 79 59
12014 3 104 79 98
12015 3 104 79 100
12016 3 104 79 83
12017 3 104 79 85
12018 1 104 79 124
12019 1 104 79 103
12020 1 104 79 105
12021 1 104 79 109
12022 2 74 79 53
12023 2 74 79 55
12024 3 74 79 59
12025 2 74 79 98
12026 2 74 79 100
12027 4 74 79 83
12028 4 74 79 85
12029 3 74 79 124
12030 4 74 79 103
12031 4 74 79 105
12032 6 74 79 109
12033 3 53 79 55
12034 2 53 79 59
12035 2 53 79 98
12036 4 53 79 100
12037 2 53 79 83
12038 4 53 79 85
12039 4 53 79 124
12040 3 53 79 103
12041 6 53 79 105
12042 4 53 79 109
12043 2 55 79 59
12044 4 55 79 98
12045 2 55 79 100
12046 4 55 79 83
12047 2 55 79 85
12048 4 55 79 124
12049 6 55 79 103
12050 3 55 79 105
12051 4 55 79 109
12052 4 59 79 98
12053 4 59 79 100
12054 2 59 79 83
12055 2 59 79 85
12056 6 59 79 124
12057 4 59 79 103
12058 4 59 79 105
12059 3 59 79 109
12060 3 98 79 100
12061 3 98 79 83
12062 6 98 79 85
12063 2 98 79 124
12064 2 98 79 103
12065 4 98 79 105
12066 4 98 79 109
12067 6 100 79 83
12068 3 100 79 85
12069 2 100 79 124
12070 4 100 79 103
12071 2 100 79 105
12072 4 100 79 109
12073 3 83 79 85
12074 4 83 79 124
12075 2 83 79 103
12076 4 83 79 105
12077 2 83 79 109
12078 4 85 79 124
12079 4 85 79 103
12080 2 85 79 105
12081 2 85 79 109
12082 2 124 79 103
12083 2 124 79 105
12084 3 124 79 109
12085 3 103 79 105
12086 2 103 79 109
12087 2 105 79 109
12088 3 55 80 100
12089 3 55 80 79
12090 3 55 80 76
12091 3 55 80 85
12092 6 55 80 105
12093 1 55 80 75
12094 1 55 80 54
12095 1 55 80 51
12096 1 55 80 60
12097 3 55 80 99
12098 3 55 80 96
12099 3 55 80 84
12100 3 55 80 81
12101 5 55 80 125
12102 5 55 80 104
12103 5 55 80 101
12104 5 55 80 110
12105 3 100 80 79
12106 3 100 80 76
12107 6 100 80 85
12108 3 100 80 105
12109 1 100 80 75
12110 3 100 80 54
12111 3 100 80 51
12112 5 100 80 60
12113 1 100 80 99
12114 1 100 80 96
12115 5 100 80 84
12116 5 100 80 81
12117 1 100 80 125
12118 3 100 80 104
12119 3 100 80 101
12120 5 100 80 110
12121 6 79 80 76
12122 3 79 80 85
12123 3 79 80 105
12124 3 79 80 75
12125 1 79 80 54
12126 5 79 80 51
12127 3 79 80 60
12128 1 79 80 99
12129 5 79 80 96
12130 1 79 80 84
12131 5 79 80 81
12132 3 79 80 125
12133 1 79 80 104
12134 5 79 80 101
12135 3 79 80 110
12136 3 76 80 85
12137 3 76 80 105
12138 3 76 80 75
12139 5 76 80 54
12140 1 76 80 51
12141 3 76 80 60
12142 5 76 80 99
12143 1 76 80 96
12144 5 76 80 84
12145 1 76 80 81
12146 3 76 80 125
12147 5 76 80 104
12148 1 76 80 101
12149 3 76 80 110
12150 3 85 80 105
12151 5 85 80 75
12152 3 85 80 54
12153 3 85 80 51
12154 1 85 80 60
12155 5 85 80 99
12156 5 85 80 96
12157 1 85 80 84
12158 1 85 80 81
12159 5 85 80 125
12160 3 85 80 104
12161 3 85 80 101
12162 1 85 80 110
12163 5 105 80 75
12164 5 105 80 54
12165 5 105 80 51
12166 5 105 80 60
12167 3 105 80 99
12168 3 105 80 96
12169 3 105 80 84
12170 3 105 80 81
12171 1 105 80 125
12172 1 105 80 104
12173 1 105 80 101
12174 1 105 80 110
12175 2 75 80 54
12176 2 75 80 51
12177 3 75 80 60
12178 2 75 80 99
12179 2 75 80 96
12180 4 75 80 84
12181 4 75 80 81
12182 3 75 80 125
12183 4 75 80 104
12184 4 75 80 101
12185 6 75 80 110
12186 3 54 80 51
12187 2 54 80 60
12188 2 54 80 99
12189 4 54 80 96
12190 2 54 80 84
12191 4 54 80 81
12192 4 54 80 125
12193 3 54 80 104
12194 6 54 80 101
12195 4 54 80 110
12196 2 51 80 60
12197 4 51 80 99
12198 2 51 80 96
12199 4 51 80 84
12200 2 51 80 81
12201 4 51 80 125
12202 6 51 80 104
12203 3 51 80 101
12204 4 51 80 110
12205 4 60 80 99
12206 4 60 80 96
12207 2 60 80 84
12208 2 60 80 81
12209 6 60 80 125
12210 4 60 80 104
12211 4 60 80 101
12212 3 60 80 110
12213 3 99 80 96
12214 3 99 80 84
12215 6 99 80 81
12216 2 99 80 125
12217 2 99 80 104
12218 4 99 80 101
12219 4 99 80 110
12220 6 96 80 84
12221 3 96 80 81
12222 2 96 80 125
12223 4 96 80 104
12224 2 96 80 101
12225 4 96 80 110
12226 3 84 80 81
12227 4 84 80 125
12228 2 84 80 104
12229 4 84 80 101
12230 2 84 80 110
12231 4 81 80 125
12232 4 81 80 104
12233 2 81 80 101
12234 2 81 80 110
12235 2 125 80 104
12236 2 125 80 101
12237 3 125 80 110
12238 3 104 80 101
12239 2 104 80 110
12240 2 101 80 110
12241 3 56 81 76
12242 3 56 81 85
12243 3 56 81 82
12244 3 56 81 86
12245 6 56 81 106
12246 1 56 81 51
12247 1 56 81 60
12248 1 56 81 57
12249 1 56 81 61
12250 3 56 81 80
12251 3 56 81 77
12252 3 56 81 90
12253 3 56 81 87
12254 5 56 81 101
12255 5 56 81 110
12256 5 56 81 107
12257 5 56 81 111
12258 3 76 81 85
12259 3 76 81 82
12260 6 76 81 86
12261 3 76 81 106
12262 1 76 81 51
12263 3 76 81 60
12264 3 76 81 57
12265 5 76 81 61
12266 1 76 81 80
12267 1 76 81 77
12268 5 76 81 90
12269 5 76 81 87
12270 1 76 81 101
12271 3 76 81 110
12272 3 76 81 107
12273 5 76 81 111
12274 6 85 81 82
12275 3 85 81 86
12276 3 85 81 106
12277 3 85 81 51
12278 1 85 81 60
12279 5 85 81 57
12280 3 85 81 61
12281 1 85 81 80
12282 5 85 81 77
12283 1 85 81 90
12284 5 85 81 87
12285 3 85 81 101
12286 1 85 81 110
12287 5 85 81 107
12288 3 85 81 111
12289 3 82 81 86
12290 3 82 81 106
12291 3 82 81 51
12292 5 82 81 60
12293 1 82 81 57
12294 3 82 81 61
12295 5 82 81 80
12296 1 82 81 77
12297 5 82 81 90
12298 1 82 81 87
12299 3 82 81 101
12300 5 82 81 110
12301 1 82 81 107
12302 3 82 81 111
12303 3 86 81 106
12304 5 86 81 51
12305 3 86 81 60
12306 3 86 81 57
12307 1 86 81 61
12308 5 86 81 80
12309 5 86 81 77
12310 1 86 81 90
12311 1 86 81 87
12312 5 86 81 101
12313 3 86 81 110
12314 3 86 81 107
12315 1 86 81 111
12316 5 106 81 51
12317 5 106 81 60
12318 5 106 81 57
12319 5 106 81 61
12320 3 106 81 80
12321 3 106 81 77
12322 3 106 81 90
12323 3 106 81 87
12324 1 106 81 101
12325 1 106 81 110
12326 1 106 81 107
12327 1 106 81 111
12328 2 51 81 60
12329 2 51 81 57
12330 3 51 81 61
12331 2 51 81 80
12332 2 51 81 77
12333 4 51 81 90
12334 4 51 81 87
12335 3 51 81 101
12336 4 51 81 110
12337 4 51 81 107
12338 6 51 81 111
12339 3 60 81 57
12340 2 60 81 61
12341 2 60 81 80
12342 4 60 81 77
12343 2 60 81 90
12344 4 60 81 87
12345 4 60 81 101
12346 3 60 81 110
12347 6 60 81 107
12348 4 60 81 111
12349 2 57 81 61
12350 4 57 81 80
12351 2 57 81 77
12352 4 57 81 90
12353 2 57 81 87
12354 4 57 81 101
12355 6 57 81 110
12356 3 57 81 107
12357 4 57 81 111
12358 4 61 81 80
12359 4 61 81 77
12360 2 61 81 90
12361 2 61 81 87
12362 6 61 81 101
12363 4 61 81 110
12364 4 61 81 107
12365 3 61 81 111
12366 3 80 81 77
12367 3 80 81 90
12368 6 80 81 87
12369 2 80 81 101
12370 2 80 81 110
12371 4 80 81 107
12372 4 80 81 111
12373 6 77 81 90
12374 3 77 81 87
12375 2 77 81 101
12376 4 77 81 110
12377 2 77 81 107
12378 4 77 81 111
12379 3 90 81 87
12380 4 90 81 101
12381 2 90 81 110
12382 4 90 81 107
12383 2 90 81 111
12384 4 87 81 101
12385 4 87 81 110
12386 2 87 81 107
12387 2 87 81 111
12388 2 101 81 110
12389 2 101 81 107
12390 3 101 81 111
12391 3 110 81 107
12392 2 110 81 111
12393 2 107 81 111
12394 3 57 82 77
12395 3 57 82 81
12396 3 57 82 83
12397 3 57 82 87
12398 6 57 82 107
12399 1 57 82 52
12400 1 57 82 56
12401 1 57 82 58
12402 1 57 82 62
12403 3 57 82 76
12404 3 57 82 78
12405 3 57 82 86
12406 3 57 82 88
12407 5 57 82 102
12408 5 57 82 106
12409 5 57 82 108
12410 5 57 82 112
12411 3 77 82 81
12412 3 77 82 83
12413 6 77 82 87
12414 3 77 82 107
12415 1 77 82 52
12416 3 77 82 56
12417 3 77 82 58
12418 5 77 82 62
12419 1 77 82 76
12420 1 77 82 78
12421 5 77 82 86
12422 5 77 82 88
12423 1 77 82 102
12424 3 77 82 106
12425 3 77 82 108
12426 5 77 82 112
12427 6 81 82 83
12428 3 81 82 87
12429 3 81 82 107
12430 3 81 82 52
12431 1 81 82 56
12432 5 81 82 58
12433 3 81 82 62
12434 1 81 82 76
12435 5 81 82 78
12436 1 81 82 86
12437 5 81 82 88
12438 3 81 82 102
12439 1 81 82 106
12440 5 81 82 108
12441 3 81 82 112
12442 3 83 82 87
12443 3 83 82 107
12444 3 83 82 52
12445 5 83 82 56
12446 1 83 82 58
12447 3 83 82 62
12448 5 83 82 76
12449 1 83 82 78
12450 5 83 82 86
12451 1 83 82 88
12452 3 83 82 102
12453 5 83 82 106
12454 1 83 82 108
12455 3 83 82 112
12456 3 87 82 107
12457 5 87 82 52
12458 3 87 82 56
12459 3 87 82 58
12460 1 87 82 62
12461 5 87 82 76
12462 5 87 82 78
12463 1 87 82 86
12464 1 87 82 88
12465 5 87 82 102
12466 3 87 82 106
12467 3 87 82 108
12468 1 87 82 112
12469 5 107 82 52
12470 5 107 82 56
12471 5 107 82 58
12472 5 107 82 62
12473 3 107 82 76
12474 3 107 82 78
12475 3 107 82 86
12476 3 107 82 88
12477 1 107 82 102
12478 1 107 82 106
12479 1 107 82 108
12480 1 107 82 112
12481 2 52 82 56
12482 2 52 82 58
12483 3 52 82 62
12484 2 52 82 76
12485 2 52 82 78
12486 4 52 82 86
12487 4 52 82 88
12488 3 52 82 102
12489 4 52 82 106
12490 4 52 82 108
12491 6 52 82 112
12492 3 56 82 58
12493 2 56 82 62
12494 2 56 82 76
12495 4 56 82 78
12496 2 56 82 86
12497 4 56 82 88
12498 4 56 82 102
12499 3 56 82 106
12500 6 56 82 108
12501 4 56 82 112
12502 2 58 82 62
12503 4 58 82 76
12504 2 58 82 78
12505 4 58 82 86
12506 2 58 82 88
12507 4 58 82 102
12508 6 58 82 106
12509 3 58 82 108
12510 4 58 82 112
12511 4 62 82 76
12512 4 62 82 78
12513 2 62 82 86
12514 2 62 82 88
12515 6 62 82 102
12516 4 62 82 106
12517 4 62 82 108
12518 3 62 82 112
12519 3 76 82 78
12520 3 76 82 86
12521 6 76 82 88
12522 2 76 82 102
12523 2 76 82 106
12524 4 76 82 108
12525 4 76 82 112
12526 6 78 82 86
12527 3 78 82 88
12528 2 78 82 102
12529 4 78 82 106
12530 2 78 82 108
12531 4 78 82 112
12532 3 86 82 88
12533 4 86 82 102
12534 2 86 82 106
12535 4 86 82 108
12536 2 86 82 112
12537 4 88 82 102
12538 4 88 82 106
12539 2 88 82 108
12540 2 88 82 112
12541 2 102 82 106
12542 2 102 82 108
12543 3 102 82 112
12544 3 106 82 108
12545 2 106 82 112
12546 2 108 82 112
12547 3 58 83 78
12548 3 58 83 82
12549 3 58 83 84
12550 3 58 83 88
12551 6 58 83 108
12552 1 58 83 53
12553 1 58 83 57
12554 1 58 83 59
12555 1 58 83 63
12556 3 58 83 77
12557 3 58 83 79
12558 3 58 83 87
12559 3 58 83 89
12560 5 58 83 103
12561 5 58 83 107
12562 5 58 83 109
12563 5 58 83 113
12564 3 78 83 82
12565 3 78 83 84
12566 6 78 83 88
12567 3 78 83 108
12568 1 78 83 53
12569 3 78 83 57
12570 3 78 83 59
12571 5 78 83 63
12572 1 78 83 77
12573 1 78 83 79
12574 5 78 83 87
12575 5 78 83 89
12576 1 78 83 103
12577 3 78 83 107
12578 3 78 83 109
12579 5 78 83 113
12580 6 82 83 84
12581 3 82 83 88
12582 3 82 83 108
12583 3 82 83 53
12584 1 82 83 57
12585 5 82 83 59
12586 3 82 83 63
12587 1 82 83 77
12588 5 82 83 79
12589 1 82 83 87
12590 5 82 83 89
12591 3 82 83 103
12592 1 82 83 107
12593 5 82 83 109
12594 3 82 83 113
12595 3 84 83 88
12596 3 84 83 108
12597 3 84 83 53
12598 5 84 83 57
12599 1 84 83 59
12600 3 84 83 63
12601 5 84 83 77
12602 1 84 83 79
12603 5 84 83 87
12604 1 84 83 89
12605 3 84 83 103
12606 5 84 83 107
12607 1 84 83 109
12608 3 84 83 113
12609 3 88 83 108
12610 5 88 83 53
12611 3 88 83 57
12612 3 88 83 59
12613 1 88 83 63
12614 5 88 83 77
12615 5 88 83 79
12616 1 88 83 87
12617 1 88 83 89
12618 5 88 83 103
12619 3 88 83 107
12620 3 88 83 109
12621 1 88 83 113
12622 5 108 83 53
12623 5 108 83 57
12624 5 108 83 59
12625 5 108 83 63
12626 3 108 83 77
12627 3 108 83 79
12628 3 108 83 87
12629 3 108 83 89
12630 1 108 83 103
12631 1 108 83 107
12632 1 108 83 109
12633 1 108 83 113
12634 2 53 83 57
12635 2 53 83 59
12636 3 53 83 63
12637 2 53 83 77
12638 2 53 83 79
12639 4 53 83 87
12640 4 53 83 89
12641 3 53 83 103
12642 4 53 83 107
12643 4 53 83 109
12644 6 53 83 113
12645 3 57 83 59
12646 2 57 83 63
12647 2 57 83 77
12648 4 57 83 79
12649 2 57 83 87
12650 4 57 83 89
12651 4 57 83 103
12652 3 57 83 107
12653 6 57 83 109
12654 4 57 83 113
12655 2 59 83 63
12656 4 59 83 77
12657 2 59 83 79
12658 4 59 83 87
12659 2 59 83 89
12660 4 59 83 103
12661 6 59 83 107
12662 3 59 83 109
12663 4 59 83 113
12664 4 63 83 77
12665 4 63 83 79
12666 2 63 83 87
12667 2 63 83 89
12668 6 63 83 103
12669 4 63 83 107
12670 4 63 83 109
12671 3 63 83 113
12672 3 77 83 79
12673 3 77 83 87
12674 6 77 83 89
12675 2 77 83 103
12676 2 77 83 107
12677 4 77 83 109
12678 4 77 83 113
12679 6 79 83 87
12680 3 79 83 89
12681 2 79 83 103
12682 4 79 83 107
12683 2 79 83 109
12684 4 79 83 113
12685 3 87 83 89
12686 4 87 83 103
12687 2 87 83 107
12688 4 87 83 109
12689 2 87 83 113
12690 4 89 83 103
12691 4 89 83 107
12692 2 89 83 109
12693 2 89 83 113
12694 2 103 83 107
12695 2 103 83 109
12696 3 103 83 113
12697 3 107 83 109
12698 2 107 83 113
12699 2 109 83 113
12700 3 59 84 79
12701 3 59 84 83
12702 3 59 84 85
12703 3 59 84 89
12704 6 59 84 109
12705 1 59 84 54
12706 1 59 84 58
12707 1 59 84 60
12708 1 59 84 64
12709 3 59 84 78
12710 3 59 84 80
12711 3 59 84 88
12712 3 59 84 90
12713 5 59 84 104
12714 5 59 84 108
12715 5 59 84 110
12716 5 59 84 114
12717 3 79 84 83
12718 3 79 84 85
12719 6 79 84 89
12720 3 79 84 109
12721 1 79 84 54
12722 3 79 84 58
12723 3 79 84 60
12724 5 79 84 64
12725 1 79 84 78
12726 1 79 84 80
12727 5 79 84 88
12728 5 79 84 90
12729 1 79 84 104
12730 3 79 84 108
12731 3 79 84 110
12732 5 79 84 114
12733 6 83 84 85
12734 3 83 84 89
12735 3 83 84 109
12736 3 83 84 54
12737 1 83 84 58
12738 5 83 84 60
12739 3 83 84 64
12740 1 83 84 78
12741 5 83 84 80
12742 1 83 84 88
12743 5 83 84 90
12744 3 83 84 104
12745 1 83 84 108
12746 5 83 84 110
12747 3 83 84 114
12748 3 85 84 89
12749 3 85 84 109
12750 3 85 84 54
12751 5 85 84 58
12752 1 85 84 60
12753 3 85 84 64
12754 5 85 84 78
12755 1 85 84 80
12756 5 85 84 88
12757 1 85 84 90
12758 3 85 84 104
12759 5 85 84 108
12760 1 85 84 110
12761 3 85 84 114
12762 3 89 84 109
12763 5 89 84 54
12764 3 89 84 58
12765 3 89 84 60
12766 1 89 84 64
12767 5 89 84 78
12768 5 89 84 80
12769 1 89 84 88
12770 1 89 84 90
12771 5 89 84 104
12772 3 89 84 108
12773 3 89 84 110
12774 1 89 84 114
12775 5 109 84 54
12776 5 109 84 58
12777 5 109 84 60
12778 5 109 84 64
12779 3 109 84 78
12780 3 109 84 80
12781 3 109 84 88
12782 3 109 84 90
12783 1 109 84 104
12784 1 109 84 108
12785 1 109 84 110
12786 1 109 84 114
12787 2 54 84 58
12788 2 54 84 60
12789 3 54 84 64
12790 2 54 84 78
12791 2 54 84 80
12792 4 54 84 88
12793 4 54 84 90
12794 3 54 84 104
12795 4 54 84 108
12796 4 54 84 110
12797 6 54 84 114
12798 3 58 84 60
12799 2 58 84 64
12800 2 58 84 78
12801 4 58 84 80
12802 2 58 84 88
12803 4 58 84 90
12804 4 58 84 104
12805 3 58 84 108
12806 6 58 84 110
12807 4 58 84 114
12808 2 60 84 64
12809 4 60 84 78
12810 2 60 84 80
12811 4 60 84 88
12812 2 60 84 90
12813 4 60 84 104
12814 6 60 84 108
12815 3 60 84 110
12816 4 60 84 114
12817 4 64 84 78
12818 4 64 84 80
12819 2 64 84 88
12820 2 64 84 90
12821 6 64 84 104
12822 4 64 84 108
12823 4 64 84 110
12824 3 64 84 114
12825 3 78 84 80
12826 3 78 84 88
12827 6 78 84 90
12828 2 78 84 104
12829 2 78 84 108
12830 4 78 84 110
12831 4 78 84 114
12832 6 80 84 88
12833 3 80 84 90
12834 2 80 84 104
12835 4 80 84 108
12836 2 80 84 110
12837 4 80 84 114
12838 3 88 84 90
12839 4 88 84 104
12840 2 88 84 108
12841 4 88 84 110
12842 2 88 84 114
12843 4 90 84 104
12844 4 90 84 108
12845 2 90 84 110
12846 2 90 84 114
12847 2 104 84 108
12848 2 104 84 110
12849 3 104 84 114
12850 3 108 84 110
12851 2 108 84 114
12852 2 110 84 114
12853 3 60 85 80
12854 3 60 85 84
12855 3 60 85 81
12856 3 60 85 90
12857 6 60 85 110
12858 1 60 85 55
12859 1 60 85 59
12860 1 60 85 56
12861 1 60 85 65
12862 3 60 85 79
12863 3 60 85 76
12864 3 60 85 89
12865 3 60 85 86
12866 5 60 85 105
12867 5 60 85 109
12868 5 60 85 106
12869 5 60 85 115
12870 3 80 85 84
12871 3 80 85 81
12872 6 80 85 90
12873 3 80 85 110
12874 1 80 85 55
12875 3 80 85 59
12876 3 80 85 56
12877 5 80 85 65
12878 1 80 85 79
12879 1 80 85 76
12880 5 80 85 89
12881 5 80 85 86
12882 1 80 85 105
12883 3 80 85 109
12884 3 80 85 106
12885 5 80 85 115
12886 6 84 85 81
12887 3 84 85 90
12888 3 84 85 110
12889 3 84 85 55
12890 1 84 85 59
12891 5 84 85 56
12892 3 84 85 65
12893 1 84 85 79
12894 5 84 85 76
12895 1 84 85 89
12896 5 84 85 86
12897 3 84 85 105
12898 1 84 85 109
12899 5 84 85 106
12900 3 84 85 115
12901 3 81 85 90
12902 3 81 85 110
12903 3 81 85 55
12904 5 81 85 59
12905 1 81 85 56
12906 3 81 85 65
12907 5 81 85 79
12908 1 81 85 76
12909 5 81 85 89
12910 1 81 85 86
12911 3 81 85 105
12912 5 81 85 109
12913 1 81 85 106
12914 3 81 85 115
12915 3 90 85 110
12916 5 90 85 55
12917 3 90 85 59
12918 3 90 85 56
12919 1 90 85 65
12920 5 90 85 79
12921 5 90 85 76
12922 1 90 85 89
12923 1 90 85 86
12924 5 90 85 105
12925 3 90 85 109
12926 3 90 85 106
12927 1 90 85 115
12928 5 110 85 55
12929 5 110 85 59
12930 5 110 85 56
12931 5 110 85 65
12932 3 110 85 79
12933 3 110 85 76
12934 3 110 85 89
12935 3 110 85 86
12936 1 110 85 105
12937 1 110 85 109
12938 1 110 85 106
12939 1 110 85 115
12940 2 55 85 59
12941 2 55 85 56
12942 3 55 85 65
12943 2 55 85 79
12944 2 55 85 76
12945 4 55 85 89
12946 4 55 85 86
12947 3 55 85 105
12948 4 55 85 109
12949 4 55 85 106
12950 6 55 85 115
12951 3 59 85 56
12952 2 59 85 65
12953 2 59 85 79
12954 4 59 85 76
12955 2 59 85 89
12956 4 59 85 86
12957 4 59 85 105
12958 3 59 85 109
12959 6 59 85 106
12960 4 59 85 115
12961 2 56 85 65
12962 4 56 85 79
12963 2 56 85 76
12964 4 56 85 89
12965 2 56 85 86
12966 4 56 85 105
12967 6 56 85 109
12968 3 56 85 106
12969 4 56 85 115
12970 4 65 85 79
12971 4 65 85 76
12972 2 65 85 89
12973 2 65 85 86
12974 6 65 85 105
12975 4 65 85 109
12976 4 65 85 106
12977 3 65 85 115
12978 3 79 85 76
12979 3 79 85 89
12980 6 79 85 86
12981 2 79 85 105
12982 2 79 85 109
12983 4 79 85 106
12984 4 79 85 115
12985 6 76 85 89
12986 3 76 85 86
12987 2 76 85 105
12988 4 76 85 109
12989 2 76 85 106
12990 4 76 85 115
12991 3 89 85 86
12992 4 89 85 105
12993 2 89 85 109
12994 4 89 85 106
12995 2 89 85 115
12996 4 86 85 105
12997 4 86 85 109
12998 2 86 85 106
12999 2 86 85 115
13000 2 105 85 109
13001 2 105 85 106
13002 3 105 85 115
13003 3 109 85 106
13004 2 109 85 115
13005 2 106 85 115
13006 3 61 86 81
13007 3 61 86 90
13008 3 61 86 87
13009 3 61 86 91
13010 6 61 86 111
13011 1 61 86 56
13012 1 61 86 65
13013 1 61 86 62
13014 1 61 86 66
13015 3 61 86 85
13016 3 61 86 82
13017 3 61 86 95
13018 3 61 86 92
13019 5 61 86 106
13020 5 61 86 115
13021 5 61 86 112
13022 5 61 86 116
13023 3 81 86 90
13024 3 81 86 87
13025 6 81 86 91
13026 3 81 86 111
13027 1 81 86 56
13028 3 81 86 65
13029 3 81 86 62
13030 5 81 86 66
13031 1 81 86 85
13032 1 81 86 82
13033 5 81 86 95
13034 5 81 86 92
13035 1 81 86 106
13036 3 81 86 115
13037 3 81 86 112
13038 5 81 86 116
13039 6 90 86 87
13040 3 90 86 91
13041 3 90 86 111
13042 3 90 86 56
13043 1 90 86 65
13044 5 90 86 62
13045 3 90 86 66
13046 1 90 86 85
13047 5 90 86 82
13048 1 90 86 95
13049 5 90 86 92
13050 3 90 86 106
13051 1 90 86 115
13052 5 90 86 112
13053 3 90 86 116
13054 3 87 86 91
13055 3 87 86 111
13056 3 87 86 56
13057 5 87 86 65
13058 1 87 86 62
13059 3 87 86 66
13060 5 87 86 85
13061 1 87 86 82
13062 5 87 86 95
13063 1 87 86 92
13064 3 87 86 106
13065 5 87 86 115
13066 1 87 86 112
13067 3 87 86 116
13068 3 91 86 111
13069 5 91 86 56
13070 3 91 86 65
13071 3 91 86 62
13072 1 91 86 66
13073 5 91 86 85
13074 5 91 86 82
13075 1 91 86 95
13076 1 91 86 92
13077 5 91 86 106
13078 3 91 86 115
13079 3 91 86 112
13080 1 91 86 116
13081 5 111 86 56
13082 5 111 86 65
13083 5 111 86 62
13084 5 111 86 66
13085 3 111 86 85
13086 3 111 86 82
13087 3 111 86 95
13088 3 111 86 92
13089 1 111 86 106
13090 1 111 86 115
13091 1 111 86 112
13092 1 111 86 116
13093 2 56 86 65
13094 2 56 86 62
13095 3 56 86 66
13096 2 56 86 85
13097 2 56 86 82
13098 4 56 86 95
13099 4 56 86 92
13100 3 56 86 106
13101 4 56 86 115
13102 4 56 86 112
13103 6 56 86 116
13104 3 65 86 62
13105 2 65 86 66
13106 2 65 86 85
13107 4 65 86 82
13108 2 65 86 95
13109 4 65 86 92
13110 4 65 86 106
13111 3 65 86 115
13112 6 65 86 112
13113 4 65 86 116
13114 2 62 86 66
13115 4 62 86 85
13116 2 62 86 82
13117 4 62 86 95
13118 2 62 86 92
13119 4 62 86 106
13120 6 62 86 115
13121 3 62 86 112
13122 4 62 86 116
13123 4 66 86 85
13124 4 66 86 82
13125 2 66 86 95
13126 2 66 86 92
13127 6 66 86 106
13128 4 66 86 115
13129 4 66 86 112
13130 3 66 86 116
13131 3 85 86 82
13132 3 85 86 95
13133 6 85 86 92
13134 2 85 86 106
13135 2 85 86 115
13136 4 85 86 112
13137 4 85 86 116
13138 6 82 86 95
13139 3 82 86 92
13140 2 82 86 106
13141 4 82 86 115
13142 2 82 86 112
13143 4 82 86 116
13144 3 95 86 92
13145 4 95 86 106
13146 2 95 86 115
13147 4 95 86 112
13148 2 95 86 116
13149 4 92 86 106
13150 4 92 86 115
13151 2 92 86 112
13152 2 92 86 116
13153 2 106 86 115
13154 2 106 86 112
13155 3 106 86 116
13156 3 115 86 112
13157 2 115 86 116
13158 2 112 86 116
13159 3 62 87 82
13160 3 62 87 86
13161 3 62 87 88
13162 3 62 87 92
13163 6 62 87 112
13164 1 62 87 57
13165 1 62 87 61
13166 1 62 87 63
13167 1 62 87 67
13168 3 62 87 81
13169 3 62 87 83
13170 3 62 87 91
13171 3 62 87 93
13172 5 62 87 107
13173 5 62 87 111
13174 5 62 87 113
13175 5 62 87 117
13176 3 82 87 86
13177 3 82 87 88
13178 6 82 87 92
13179 3 82 87 112
13180 1 82 87 57
13181 3 82 87 61
13182 3 82 87 63
13183 5 82 87 67
13184 1 82 87 81
13185 1 82 87 83
13186 5 82 87 91
13187 5 82 87 93
13188 1 82 87 107
13189 3 82 87 111
13190 3 82 87 113
13191 5 82 87 117
13192 6 86 87 88
13193 3 86 87 92
13194 3 86 87 112
13195 3 86 87 57
13196 1 86 87 61
13197 5 86 87 63
13198 3 86 87 67
13199 1 86 87 81
13200 5 86 87 83
13201 1 86 87 91
13202 5 86 87 93
13203 3 86 87 107
13204 1 86 87 111
13205 5 86 87 113
13206 3 86 87 117
13207 3 88 87 92
13208 3 88 87 112
13209 3 88 87 57
13210 5 88 87 61
13211 1 88 87 63
13212 3 88 87 67
13213 5 88 87 81
13214 1 88 87 83
13215 5 88 87 91
13216 1 88 87 93
13217 3 88 87 107
13218 5 88 87 111
13219 1 88 87 113
13220 3 88 87 117
13221 3 92 87 112
13222 5 92 87 57
13223 3 92 87 61
13224 3 92 87 63
13225 1 92 87 67
13226 5 92 87 81
13227 5 92 87 83
13228 1 92 87 91
13229 1 92 87 93
13230 5 92 87 107
13231 3 92 87 111
13232 3 92 87 113
13233 1 92 87 117
13234 5 112 87 57
13235 5 112 87 61
13236 5 112 87 63
13237 5 112 87 67
13238 3 112 87 81
13239 3 112 87 83
13240 3 112 87 91
13241 3 112 87 93
13242 1 112 87 107
13243 1 112 87 111
13244 1 112 87 113
13245 1 112 87 117
13246 2 57 87 61
13247 2 57 87 63
13248 3 57 87 67
13249 2 57 87 81
13250 2 57 87 83
13251 4 57 87 91
13252 4 57 87 93
13253 3 57 87 107
13254 4 57 87 111
13255 4 57 87 113
13256 6 57 87 117
13257 3 61 87 63
13258 2 61 87 67
13259 2 61 87 81
13260 4 61 87 83
13261 2 61 87 91
13262 4 61 87 93
13263 4 61 87 107
13264 3 61 87 111
13265 6 61 87 113
13266 4 61 87 117
13267 2 63 87 67
13268 4 63 87 81
13269 2 63 87 83
13270 4 63 87 91
13271 2 63 87 93
13272 4 63 87 107
13273 6 63 87 111
13274 3 63 87 113
13275 4 63 87 117
13276 4 67 87 81
13277 4 67 87 83
13278 2 67 87 91
13279 2 67 87 93
13280 6 67 87 107
13281 4 67 87 111
13282 4 67 87 113
13283 3 67 87 117
13284 3 81 87 83
13285 3 81 87 91
13286 6 81 87 93
13287 2 81 87 107
13288 2 81 87 111
13289 4 81 87 113
13290 4 81 87 117
13291 6 83 87 91
13292 3 83 87 93
13293 2 83 87 107
13294 4 83 87 111
13295 2 83 87 113
13296 4 83 87 117
13297 3 91 87 93
13298 4 91 87 107
13299 2 91 87 111
13300 4 91 87 113
13301 2 91 87 117
13302 4 93 87 107
13303 4 93 87 111
13304 2 93 87 113
13305 2 93 87 117
13306 2 107 87 111
13307 2 107 87 113
13308 3 107 87 117
13309 3 111 87 113
13310 2 111 87 117
13311 2 113 87 117
13312 3 63 88 83
13313 3 63 88 87
13314 3 63 88 89
13315 3 63 88 93
13316 6 63 88 113
13317 1 63 88 58
13318 1 63 88 62
13319 1 63 88 64
13320 1 63 88 68
13321 3 63 88 82
13322 3 63 88 84
13323 3 63 88 92
13324 3 63 88 94
13325 5 63 88 108
13326 5 63 88 112
13327 5 63 88 114
13328 5 63 88 118
13329 3 83 88 87
13330 3 83 88 89
13331 6 83 88 93
13332 3 83 88 113
13333 1 83 88 58
13334 3 83 88 62
13335 3 83 88 64
13336 5 83 88 68
13337 1 83 88 82
13338 1 83 88 84
13339 5 83 88 92
13340 5 83 88 94
13341 1 83 88 108
13342 3 83 88 112
13343 3 83 88 114
13344 5 83 88 118
13345 6 87 88 89
13346 3 87 88 93
13347 3 87 88 113
13348 3 87 88 58
13349 1 87 88 62
13350 5 87 88 64
13351 3 87 88 68
13352 1 87 88 82
13353 5 87 88 84
13354 1 87 88 92
13355 5 87 88 94
13356 3 87 88 108
13357 1 87 88 112
13358 5 87 88 114
13359 3 87 88 118
13360 3 89 88 93
13361 3 89 88 113
13362 3 89 88 58
13363 5 89 88 62
13364 1 89 88 64
13365 3 89 88 68
13366 5 89 88 82
13367 1 89 88 84
13368 5 89 88 92
13369 1 89 88 94
13370 3 89 88 108
13371 5 89 88 112
13372 1 89 88 114
13373 3 89 88 118
13374 3 93 88 113
13375 5 93 88 58
13376 3 93 88 62
13377 3 93 88 64
13378 1 93 88 68
13379 5 93 88 82
13380 5 93 88 84
13381 1 93 88 92
13382 1 93 88 94
13383 5 93 88 108
13384 3 93 88 112
13385 3 93 88 114
13386 1 93 88 118
13387 5 113 88 58
13388 5 113 88 62
13389 5 113 88 64
13390 5 113 88 68
13391 3 113 88 82
13392 3 113 88 84
13393 3 113 88 92
13394 3 113 88 94
13395 1 113 88 108
13396 1 113 88 112
13397 1 113 88 114
13398 1 113 88 118
13399 2 58 88 62
13400 2 58 88 64
13401 3 58 88 68
13402 2 58 88 82
13403 2 58 88 84
13404 4 58 88 92
13405 4 58 88 94
13406 3 58 88 108
13407 4 58 88 112
13408 4 58 88 114
13409 6 58 88 118
13410 3 62 88 64
13411 2 62 88 68
13412 2 62 88 82
13413 4 62 88 84
13414 2 62 88 92
13415 4 62 88 94
13416 4 62 88 108
13417 3 62 88 112
13418 6 62 88 114
13419 4 62 88 118
13420 2 64 88 68
13421 4 64 88 82
13422 2 64 88 84
13423 4 64 88 92
13424 2 64 88 94
13425 4 64 88 108
13426 6 64 88 112
13427 3 64 88 114
13428 4 64 88 118
13429 4 68 88 82
13430 4 68 88 84
13431 2 68 88 92
13432 2 68 88 94
13433 6 68 88 108
13434 4 68 88 112
13435 4 68 88 114
13436 3 68 88 118
13437 3 82 88 84
13438 3 82 88 92
13439 6 82 88 94
13440 2 82 88 108
13441 2 82 88 112
13442 4 82 88 114
13443 4 82 88 118
13444 6 84 88 92
13445 3 84 88 94
13446 2 84 88 108
13447 4 84 88 112
13448 2 84 88 114
13449 4 84 88 118
13450 3 92 88 94
13451 4 92 88 108
13452 2 92 88 112
13453 4 92 88 114
13454 2 92 88 118
13455 4 94 88 108
13456 4 94 88 112
13457 2 94 88 114
13458 2 94 88 118
13459 2 108 88 112
13460 2 108 88 114
13461 3 108 88 118
13462 3 112 88 114
13463 2 112 88 118
13464 2 114 88 118
13465 3 64 89 84
13466 3 64 89 88
13467 3 64 89 90
13468 3 64 89 94
13469 6 64 89 114
13470 1 64 89 59
13471 1 64 89 63
13472 1 64 89 65
13473 1 64 89 69
13474 3 64 89 83
13475 3 64 89 85
13476 3 64 89 93
13477 3 64 89 95
13478 5 64 89 109
13479 5 64 89 113
13480 5 64 89 115
13481 5 64 89 119
13482 3 84 89 88
13483 3 84 89 90
13484 6 84 89 94
13485 3 84 89 114
13486 1 84 89 59
13487 3 84 89 63
13488 3 84 89 65
13489 5 84 89 69
13490 1 84 89 83
13491 1 84 89 85
13492 5 84 89 93
13493 5 84 89 95
13494 1 84 89 109
13495 3 84 89 113
13496 3 84 89 115
13497 5 84 89 119
13498 6 88 89 90
13499 3 88 89 94
13500 3 88 89 114
13501 3 88 89 59
13502 1 88 89 63
13503 5 88 89 65
13504 3 88 89 69
13505 1 88 89 83
13506 5 88 89 85
13507 1 88 89 93
13508 5 88 89 95
13509 3 88 89 109
13510 1 88 89 113
13511 5 88 89 115
13512 3 88 89 119
13513 3 90 89 94
13514 3 90 89 114
13515 3 90 89 59
13516 5 90 89 63
13517 1 90 89 65
13518 3 90 89 69
13519 5 90 89 83
13520 1 90 89 85
13521 5 90 89 93
13522 1 90 89 95
13523 3 90 89 109
13524 5 90 89 113
13525 1 90 89 115
13526 3 90 89 119
13527 3 94 89 114
13528 5 94 89 59
13529 3 94 89 63
13530 3 94 89 65
13531 1 94 89 69
13532 5 94 89 83
13533 5 94 89 85
13534 1 94 89 93
13535 1 94 89 95
13536 5 94 89 109
13537 3 94 89 113
13538 3 94 89 115
13539 1 94 89 119
13540 5 114 89 59
13541 5 114 89 63
13542 5 114 89 65
13543 5 114 89 69
13544 3 114 89 83
13545 3 114 89 85
13546 3 114 89 93
13547 3 114 89 95
13548 1 114 89 109
13549 1 114 89 113
13550 1 114 89 115
13551 1 114 89 119
13552 2 59 89 63
13553 2 59 89 65
13554 3 59 89 69
13555 2 59 89 83
13556 2 59 89 85
13557 4 59 89 93
13558 4 59 89 95
13559 3 59 89 109
13560 4 59 89 113
13561 4 59 89 115
13562 6 59 89 119
13563 3 63 89 65
13564 2 63 89 69
13565 2 63 89 83
13566 4 63 89 85
13567 2 63 89 93
13568 4 63 89 95
13569 4 63 89 109
13570 3 63 89 113
13571 6 63 89 115
13572 4 63 89 119
13573 2 65 89 69
13574 4 65 89 83
13575 2 65 89 85
13576 4 65 89 93
13577 2 65 89 95
13578 4 65 89 109
13579 6 65 89 113
13580 3 65 89 115
13581 4 65 89 119
13582 4 69 89 83
13583 4 69 89 85
13584 2 69 89 93
13585 2 69 89 95
13586 6 69 89 109
13587 4 69 89 113
13588 4 69 89 115
13589 3 69 89 119
13590 3 83 89 85
13591 3 83 89 93
13592 6 83 89 95
13593 2 83 89 109
13594 2 83 89 113
13595 4 83 89 115
13596 4 83 89 119
13597 6 85 89 93
13598 3 85 89 95
13599 2 85 89 109
13600 4 85 89 113
13601 2 85 89 115
13602 4 85 89 119
13603 3 93 89 95
13604 4 93 89 109
13605 2 93 89 113
13606 4 93 89 115
13607 2 93 89 119
13608 4 95 89 109
13609 4 95 89 113
13610 2 95 89 115
13611 2 95 89 119
13612 2 109 89 113
13613 2 109 89 115
13614 3 109 89 119
13615 3 113 89 115
13616 2 113 89 119
13617 2 115 89 119
13618 3 65 90 85
13619 3 65 90 89
13620 3 65 90 86
13621 3 65 90 95
13622 6 65 90 115
13623 1 65 90 60
13624 1 65 90 64
13625 1 65 90 61
13626 1 65 90 70
13627 3 65 90 84
13628 3 65 90 81
13629 3 65 90 94
13630 3 65 90 91
13631 5 65 90 110
13632 5 65 90 114
13633 5 65 90 111
13634 5 65 90 120
13635 3 85 90 89
13636 3 85 90 86
13637 6 85 90 95
13638 3 85 90 115
13639 1 85 90 60
13640 3 85 90 64
13641 3 85 90 61
13642 5 85 90 70
13643 1 85 90 84
13644 1 85 90 81
13645 5 85 90 94
13646 5 85 90 91
13647 1 85 90 110
13648 3 85 90 114
13649 3 85 90 111
13650 5 85 90 120
13651 6 89 90 86
13652 3 89 90 95
13653 3 89 90 115
13654 3 89 90 60
13655 1 89 90 64
13656 5 89 90 61
13657 3 89 90 70
13658 1 89 90 84
13659 5 89 90 81
13660 1 89 90 94
13661 5 89 90 91
13662 3 89 90 110
13663 1 89 90 114
13664 5 89 90 111
13665 3 89 90 120
13666 3 86 90 95
13667 3 86 90 115
13668 3 86 90 60
13669 5 86 90 64
13670 1 86 90 61
13671 3 86 90 70
13672 5 86 90 84
13673 1 86 90 81
13674 5 86 90 94
13675 1 86 90 91
13676 3 86 90 110
13677 5 86 90 114
13678 1 86 90 111
13679 3 86 90 120
13680 3 95 90 115
13681 5 95 90 60
13682 3 95 90 64
13683 3 95 90 61
13684 1 95 90 70
13685 5 95 90 84
13686 5 95 90 81
13687 1 95 90 94
13688 1 95 90 91
13689 5 95 90 110
13690 3 95 90 114
13691 3 95 90 111
13692 1 95 90 120
13693 5 115 90 60
13694 5 115 90 64
13695 5 115 90 61
13696 5 115 90 70
13697 3 115 90 84
13698 3 115 90 81
13699 3 115 90 94
13700 3 115 90 91
13701 1 115 90 110
13702 1 115 90 114
13703 1 115 90 111
13704 1 115 90 120
13705 2 60 90 64
13706 2 60 90 61
13707 3 60 90 70
13708 2 60 90 84
13709 2 60 90 81
13710 4 60 90 94
13711 4 60 90 91
13712 3 60 90 110
13713 4 60 90 114
13714 4 60 90 111
13715 6 60 90 120
13716 3 64 90 61
13717 2 64 90 70
13718 2 64 90 84
13719 4 64 90 81
13720 2 64 90 94
13721 4 64 90 91
13722 4 64 90 110
13723 3 64 90 114
13724 6 64 90 111
13725 4 64 90 120
13726 2 61 90 70
13727 4 61 90 84
13728 2 61 90 81
13729 4 61 90 94
13730 2 61 90 91
13731 4 61 90 110
13732 6 61 90 114
13733 3 61 90 111
13734 4 61 90 120
13735 4 70 90 84
13736 4 70 90 81
13737 2 70 90 94
13738 2 70 90 91
13739 6 70 90 110
13740 4 70 90 114
13741 4 70 90 111
13742 3 70 90 120
13743 3 84 90 81
13744 3 84 90 94
13745 6 84 90 91
13746 2 84 90 110
13747 2 84 90 114
13748 4 84 90 111
13749 4 84 90 120
13750 6 81 90 94
13751 3 81 90 91
13752 2 81 90 110
13753 4 81 90 114
13754 2 81 90 111
13755 4 81 90 120
13756 3 94 90 91
13757 4 94 90 110
13758 2 94 90 114
13759 4 94 90 111
13760 2 94 90 120
13761 4 91 90 110
13762 4 91 90 114
13763 2 91 90 111
13764 2 91 90 120
13765 2 110 90 114
13766 2 110 90 111
13767 3 110 90 120
13768 3 114 90 111
13769 2 114 90 120
13770 2 111 90 120
13771 3 66 91 86
13772 3 66 91 95
13773 3 66 91 92
13774 3 66 91 96
13775 6 66 91 116
13776 1 66 91 61
13777 1 66 91 70
13778 1 66 91 67
13779 1 66 91 71
13780 3 66 91 90
13781 3 66 91 87
13782 3 66 91 100
13783 3 66 91 97
13784 5 66 91 111
13785 5 66 91 120
13786 5 66 91 117
13787 5 66 91 121
13788 3 86 91 95
13789 3 86 91 92
13790 6 86 91 96
13791 3 86 91 116
13792 1 86 91 61
13793 3 86 91 70
13794 3 86 91 67
13795 5 86 91 71
13796 1 86 91 90
13797 1 86 91 87
13798 5 86 91 100
13799 5 86 91 97
13800 1 86 91 111
13801 3 86 91 120
13802 3 86 91 117
13803 5 86 91 121
13804 6 95 91 92
13805 3 95 91 96
13806 3 95 91 116
13807 3 95 91 61
13808 1 95 91 70
13809 5 95 91 67
13810 3 95 91 71
13811 1 95 91 90
13812 5 95 91 87
13813 1 95 91 100
13814 5 95 91 97
13815 3 95 91 111
13816 1 95 91 120
13817 5 95 91 117
13818 3 95 91 121
13819 3 92 91 96
13820 3 92 91 116
13821 3 92 91 61
13822 5 92 91 70
13823 1 92 91 67
13824 3 92 91 71
13825 5 92 91 90
13826 1 92 91 87
13827 5 92 91 100
13828 1 92 91 97
13829 3 92 91 111
13830 5 92 91 120
13831 1 92 91 117
13832 3 92 91 121
13833 3 96 91 116
13834 5 96 91 61
13835 3 96 91 70
13836 3 96 91 67
13837 1 96 91 71
13838 5 96 91 90
13839 5 96 91 87
13840 1 96 91 100
13841 1 96 91 97
13842 5 96 91 111
13843 3 96 91 120
13844 3 96 91 117
13845 1 96 91 121
13846 5 116 91 61
13847 5 116 91 70
13848 5 116 91 67
13849 5 116 91 71
13850 3 116 91 90
13851 3 116 91 87
13852 3 116 91 100
13853 3 116 91 97
13854 1 116 91 111
13855 1 116 91 120
13856 1 116 91 117
13857 1 116 91 121
13858 2 61 91 70
13859 2 61 91 67
13860 3 61 91 71
13861 2 61 91 90
13862 2 61 91 87
13863 4 61 91 100
13864 4 61 91 97
13865 3 61 91 111
13866 4 61 91 120
13867 4 61 91 117
13868 6 61 91 121
13869 3 70 91 67
13870 2 70 91 71
13871 2 70 91 90
13872 4 70 91 87
13873 2 70 91 100
13874 4 70 91 97
13875 4 70 91 111
13876 3 70 91 120
13877 6 70 91 117
13878 4 70 91 121
13879 2 67 91 71
13880 4 67 91 90
13881 2 67 91 87
13882 4 67 91 100
13883 2 67 91 97
13884 4 67 91 111
13885 6 67 91 120
13886 3 67 91 117
13887 4 67 91 121
13888 4 71 91 90
13889 4 71 91 87
13890 2 71 91 100
13891 2 71 91 97
13892 6 71 91 111
13893 4 71 91 120
13894 4 71 91 117
13895 3 71 91 121
13896 3 90 91 87
13897 3 90 91 100
13898 6 90 91 97
13899 2 90 91 111
13900 2 90 91 120
13901 4 90 91 117
13902 4 90 91 121
13903 6 87 91 100
13904 3 87 91 97
13905 2 87 91 111
13906 4 87 91 120
13907 2 87 91 117
13908 4 87 91 121
13909 3 100 91 97
13910 4 100 91 111
13911 2 100 91 120
13912 4 100 91 117
13913 2 100 91 121
13914 4 97 91 111
13915 4 97 91 120
13916 2 97 91 117
13917 2 97 91 121
13918 2 111 91 120
13919 2 111 91 117
13920 3 111 91 121
13921 3 120 91 117
13922 2 120 91 121
13923 2 117 91 121
13924 3 67 92 87
13925 3 67 92 91
13926 3 67 92 93
13927 3 67 92 97
13928 6 67 92 117
13929 1 67 92 62
13930 1 67 92 66
13931 1 67 92 68
13932 1 67 92 72
13933 3 67 92 86
13934 3 67 92 88
13935 3 67 92 96
13936 3 67 92 98
13937 5 67 92 112
13938 5 67 92 116
13939 5 67 92 118
13940 5 67 92 122
13941 3 87 92 91
13942 3 87 92 93
13943 6 87 92 97
13944 3 87 92 117
13945 1 87 92 62
13946 3 87 92 66
13947 3 87 92 68
13948 5 87 92 72
13949 1 87 92 86
13950 1 87 92 88
13951 5 87 92 96
13952 5 87 92 98
13953 1 87 92 112
13954 3 87 92 116
13955 3 87 92 118
13956 5 87 92 122
13957 6 91 92 93
13958 3 91 92 97
13959 3 91 92 117
13960 3 91 92 62
13961 1 91 92 66
13962 5 91 92 68
13963 3 91 92 72
13964 1 91 92 86
13965 5 91 92 88
13966 1 91 92 96
13967 5 91 92 98
13968 3 91 92 112
13969 1 91 92 116
13970 5 91 92 118
13971 3 91 92 122
13972 3 93 92 97
13973 3 93 92 117
13974 3 93 92 62
13975 5 93 92 66
13976 1 93 92 68
13977 3 93 92 72
13978 5 93 92 86
13979 1 93 92 88
13980 5 93 92 96
13981 1 93 92 98
13982 3 93 92 112
13983 5 93 92 116
13984 1 93 92 118
13985 3 93 92 122
13986 3 97 92 117
13987 5 97 92 62
13988 3 97 92 66
13989 3 97 92 68
13990 1 97 92 72
13991 5 97 92 86
13992 5 97 92 88
13993 1 97 92 96
13994 1 97 92 98
13995 5 97 92 112
13996 3 97 92 116
13997 3 97 92 118
13998 1 97 92 122
13999 5 117 92 62
14000 5 117 92 66
14001 5 117 92 68
14002 5 117 92 72
14003 3 117 92 86
14004 3 117 92 88
14005 3 117 92 96
14006 3 117 92 98
14007 1 117 92 112
14008 1 117 92 116
14009 1 117 92 118
14010 1 117 92 122
14011 2 62 92 66
14012 2 62 92 68
14013 3 62 92 72
14014 2 62 92 86
14015 2 62 92 88
14016 4 62 92 96
14017 4 62 92 98
14018 3 62 92 112
14019 4 62 92 116
14020 4 62 92 118
14021 6 62 92 122
14022 3 66 92 68
14023 2 66 92 72
14024 2 66 92 86
14025 4 66 92 88
14026 2 66 92 96
14027 4 66 92 98
14028 4 66 92 112
14029 3 66 92 116
14030 6 66 92 118
14031 4 66 92 122
14032 2 68 92 72
14033 4 68 92 86
14034 2 68 92 88
14035 4 68 92 96
14036 2 68 92 98
14037 4 68 92 112
14038 6 68 92 116
14039 3 68 92 118
14040 4 68 92 122
14041 4 72 92 86
14042 4 72 92 88
14043 2 72 92 96
14044 2 72 92 98
14045 6 72 92 112
14046 4 72 92 116
14047 4 72 92 118
14048 3 72 92 122
14049 3 86 92 88
14050 3 86 92 96
14051 6 86 92 98
14052 2 86 92 112
14053 2 86 92 116
14054 4 86 92 118
14055 4 86 92 122
14056 6 88 92 96
14057 3 88 92 98
14058 2 88 92 112
14059 4 88 92 116
14060 2 88 92 118
14061 4 88 92 122
14062 3 96 92 98
14063 4 96 92 112
14064 2 96 92 116
14065 4 96 92 118
14066 2 96 92 122
14067 4 98 92 112
14068 4 98 92 116
14069 2 98 92 118
14070 2 98 92 122
14071 2 112 92 116
14072 2 112 92 118
14073 3 112 92 122
14074 3 116 92 118
14075 2 116 92 122
14076 2 118 92 122
14077 3 68 93 88
14078 3 68 93 92
14079 3 68 93 94
14080 3 68 93 98
14081 6 68 93 118
14082 1 68 93 63
14083 1 68 93 67
14084 1 68 93 69
14085 1 68 93 73
14086 3 68 93 87
14087 3 68 93 89
14088 3 68 93 97
14089 3 68 93 99
14090 5 68 93 113
14091 5 68 93 117
14092 5 68 93 119
14093 5 68 93 123
14094 3 88 93 92
14095 3 88 93 94
14096 6 88 93 98
14097 3 88 93 118
14098 1 88 93 63
14099 3 88 93 67
14100 3 88 93 69
14101 5 88 93 73
14102 1 88 93 87
14103 1 88 93 89
14104 5 88 93 97
14105 5 88 93 99
14106 1 88 93 113
14107 3 88 93 117
14108 3 88 93 119
14109 5 88 93 123
14110 6 92 93 94
14111 3 92 93 98
14112 3 92 93 118
14113 3 92 93 63
14114 1 92 93 67
14115 5 92 93 69
14116 3 92 93 73
14117 1 92 93 87
14118 5 92 93 89
14119 1 92 93 97
14120 5 92 93 99
14121 3 92 93 113
14122 1 92 93 117
14123 5 92 93 119
14124 3 92 93 123
14125 3 94 93 98
14126 3 94 93 118
14127 3 94 93 63
14128 5 94 93 67
14129 1 94 93 69
14130 3 94 93 73
14131 5 94 93 87
14132 1 94 93 89
14133 5 94 93 97
14134 1 94 93 99
14135 3 94 93 113
14136 5 94 93 117
14137 1 94 93 119
14138 3 94 93 123
14139 3 98 93 118
14140 5 98 93 63
14141 3 98 93 67
14142 3 98 93 69
14143 1 98 93 73
14144 5 98 93 87
14145 5 98 93 89
14146 1 98 93 97
14147 1 98 93 99
14148 5 98 93 113
14149 3 98 93 117
14150 3 98 93 119
14151 1 98 93 123
14152 5 118 93 63
14153 5 118 93 67
14154 5 118 93 69
14155 5 118 93 73
14156 3 118 93 87
14157 3 118 93 89
14158 3 118 93 97
14159 3 118 93 99
14160 1 118 93 113
14161 1 118 93 117
14162 1 118 93 119
14163 1 118 93 123
14164 2 63 93 67
14165 2 63 93 69
14166 3 63 93 73
14167 2 63 93 87
14168 2 63 93 89
14169 4 63 93 97
14170 4 63 93 99
14171 3 63 93 113
14172 4 63 93 117
14173 4 63 93 119
14174 6 63 93 123
14175 3 67 93 69
14176 2 67 93 73
14177 2 67 93 87
14178 4 67 93 89
14179 2 67 93 97
14180 4 67 93 99
14181 4 67 93 113
14182 3 67 93 117
14183 6 67 93 119
14184 4 67 93 123
14185 2 69 93 73
14186 4 69 93 87
14187 2 69 93 89
14188 4 69 93 97
14189 2 69 93 99
14190 4 69 93 113
14191 6 69 93 117
14192 3 69 93 119
14193 4 69 93 123
14194 4 73 93 87
14195 4 73 93 89
14196 2 73 93 97
14197 2 73 93 99
14198 6 73 93 113
14199 4 73 93 117
14200 4 73 93 119
14201 3 73 93 123
14202 3 87 93 89
14203 3 87 93 97
14204 6 87 93 99
14205 2 87 93 113
14206 2 87 93 117
14207 4 87 93 119
14208 4 87 93 123
14209 6 89 93 97
14210 3 89 93 99
14211 2 89 93 113
14212 4 89 93 117
14213 2 89 93 119
14214 4 89 93 123
14215 3 97 93 99
14216 4 97 93 113
14217 2 97 93 117
14218 4 97 93 119
14219 2 97 93 123
14220 4 99 93 113
14221 4 99 93 117
14222 2 99 93 119
14223 2 99 93 123
14224 2 113 93 117
14225 2 113 93 119
14226 3 113 93 123
14227 3 117 93 119
14228 2 117 93 123
14229 2 119 93 123
14230 3 69 94 89
14231 3 69 94 93
14232 3 69 94 95
14233 3 69 94 99
14234 6 69 94 119
14235 1 69 94 64
14236 1 69 94 68
14237 1 69 94 70
14238 1 69 94 74
14239 3 69 94 88
14240 3 69 94 90
14241 3 69 94 98
14242 3 69 94 100
14243 5 69 94 114
14244 5 69 94 118
14245 5 69 94 120
14246 5 69 94 124
14247 3 89 94 93
14248 3 89 94 95
14249 6 89 94 99
14250 3 89 94 119
14251 1 89 94 64
14252 3 89 94 68
14253 3 89 94 70
14254 5 89 94 74
14255 1 89 94 88
14256 1 89 94 90
14257 5 89 94 98
14258 5 89 94 100
14259 1 89 94 114
14260 3 89 94 118
14261 3 89 94 120
14262 5 89 94 124
14263 6 93 94 95
14264 3 93 94 99
14265 3 93 94 119
14266 3 93 94 64
14267 1 93 94 68
14268 5 93 94 70
14269 3 93 94 74
14270 1 93 94 88
14271 5 93 94 90
14272 1 93 94 98
14273 5 93 94 100
14274 3 93 94 114
14275 1 93 94 118
14276 5 93 94 120
14277 3 93 94 124
14278 3 95 94 99
14279 3 95 94 119
14280 3 95 94 64
14281 5 95 94 68
14282 1 95 94 70
14283 3 95 94 74
14284 5 95 94 88
14285 1 95 94 90
14286 5 95 94 98
14287 1 95 94 100
14288 3 95 94 114
14289 5 95 94 118
14290 1 95 94 120
14291 3 95 94 124
14292 3 99 94 119
14293 5 99 94 64
14294 3 99 94 68
14295 3 99 94 70
14296 1 99 94 74
14297 5 99 94 88
14298 5 99 94 90
14299 1 99 94 98
14300 1 99 94 100
14301 5 99 94 114
14302 3 99 94 118
14303 3 99 94 120
14304 1 99 94 124
14305 5 119 94 64
14306 5 119 94 68
14307 5 119 94 70
14308 5 119 94 74
14309 3 119 94 88
14310 3 119 94 90
14311 3 119 94 98
14312 3 119 94 100
14313 1 119 94 114
14314 1 119 94 118
14315 1 119 94 120
14316 1 119 94 124
14317 2 64 94 68
14318 2 64 94 70
14319 3 64 94 74
14320 2 64 94 88
14321 2 64 94 90
14322 4 64 94 98
14323 4 64 94 100
14324 3 64 94 114
14325 4 64 94 118
14326 4 64 94 120
14327 6 64 94 124
14328 3 68 94 70
14329 2 68 94 74
14330 2 68 94 88
14331 4 68 94 90
14332 2 68 94 98
14333 4 68 94 100
14334 4 68 94 114
14335 3 68 94 118
14336 6 68 94 120
14337 4 68 94 124
14338 2 70 94 74
14339 4 70 94 88
14340 2 70 94 90
14341 4 70 94 98
14342 2 70 94 100
14343 4 70 94 114
14344 6 70 94 118
14345 3 70 94 120
14346 4 70 94 124
14347 4 74 94 88
14348 4 74 94 90
14349 2 74 94 98
14350 2 74 94 100
14351 6 74 94 114
14352 4 74 94 118
14353 4 74 94 120
14354 3 74 94 124
14355 3 88 94 90
14356 3 88 94 98
14357 6 88 94 100
14358 2 88 94 114
14359 2 88 94 118
14360 4 88 94 120
14361 4 88 94 124
14362 6 90 94 98
14363 3 90 94 100
14364 2 90 94 114
14365 4 90 94 118
14366 2 90 94 120
14367 4 90 94 124
14368 3 98 94 100
14369 4 98 94 114
14370 2 98 94 118
14371 4 98 94 120
14372 2 98 94 124
14373 4 100 94 114
14374 4 100 94 118
14375 2 100 94 120
14376 2 100 94 124
14377 2 114 94 118
14378 2 114 94 120
14379 3 114 94 124
14380 3 118 94 120
14381 2 118 94 124
14382 2 120 94 124
14383 3 70 95 90
14384 3 70 95 94
14385 3 70 95 91
14386 3 70 95 100
14387 6 70 95 120
14388 1 70 95 65
14389 1 70 95 69
14390 1 70 95 66
14391 1 70 95 75
14392 3 70 95 89
14393 3 70 95 86
14394 3 70 95 99
14395 3 70 95 96
14396 5 70 95 115
14397 5 70 95 119
14398 5 70 95 116
14399 5 70 95 125
14400 3 90 95 94
14401 3 90 95 91
14402 6 90 95 100
14403 3 90 95 120
14404 1 90 95 65
14405 3 90 95 69
14406 3 90 95 66
14407 5 90 95 75
14408 1 90 95 89
14409 1 90 95 86
14410 5 90 95 99
14411 5 90 95 96
14412 1 90 95 115
14413 3 90 95 119
14414 3 90 95 116
14415 5 90 95 125
14416 6 94 95 91
14417 3 94 95 100
14418 3 94 95 120
14419 3 94 95 65
14420 1 94 95 69
14421 5 94 95 66
14422 3 94 95 75
14423 1 94 95 89
14424 5 94 95 86
14425 1 94 95 99
14426 5 94 95 96
14427 3 94 95 115
14428 1 94 95 119
14429 5 94 95 116
14430 3 94 95 125
14431 3 91 95 100
14432 3 91 95 120
14433 3 91 95 65
14434 5 91 95 69
14435 1 91 95 66
14436 3 91 95 75
14437 5 91 95 89
14438 1 91 95 86
14439 5 91 95 99
14440 1 91 95 96
14441 3 91 95 115
14442 5 91 95 119
14443 1 91 95 116
14444 3 91 95 125
14445 3 100 95 120
14446 5 100 95 65
14447 3 100 95 69
14448 3 100 95 66
14449 1 100 95 75
14450 5 100 95 89
14451 5 100 95 86
14452 1 100 95 99
14453 1 100 95 96
14454 5 100 95 115
14455 3 100 95 119
14456 3 100 95 116
14457 1 100 95 125
14458 5 120 95 65
14459 5 120 95 69
14460 5 120 95 66
14461 5 120 95 75
14462 3 120 95 89
14463 3 120 95 86
14464 3 120 95 99
14465 3 120 95 96
14466 1 120 95 115
14467 1 120 95 119
14468 1 120 95 116
14469 1 120 95 125
14470 2 65 95 69
14471 2 65 95 66
14472 3 65 95 75
14473 2 65 95 89
14474 2 65 95 86
14475 4 65 95 99
14476 4 65 95 96
14477 3 65 95 115
14478 4 65 95 119
14479 4 65 95 116
14480 6 65 95 125
14481 3 69 95 66
14482 2 69 95 75
14483 2 69 95 89
14484 4 69 95 86
14485 2 69 95 99
14486 4 69 95 96
14487 4 69 95 115
14488 3 69 95 119
14489 6 69 95 116
14490 4 69 95 125
14491 2 66 95 75
14492 4 66 95 89
14493 2 66 95 86
14494 4 66 95 99
14495 2 66 95 96
14496 4 66 95 115
14497 6 66 95 119
14498 3 66 95 116
14499 4 66 95 125
14500 4 75 95 89
14501 4 75 95 86
14502 2 75 95 99
14503 2 75 95 96
14504 6 75 95 115
14505 4 75 95 119
14506 4 75 95 116
14507 3 75 95 125
14508 3 89 95 86
14509 3 89 95 99
14510 6 89 95 96
14511 2 89 95 115
14512 2 89 95 119
14513 4 89 95 116
14514 4 89 95 125
14515 6 86 95 99
14516 3 86 95 96
14517 2 86 95 115
14518 4 86 95 119
14519 2 86 95 116
14520 4 86 95 125
14521 3 99 95 96
14522 4 99 95 115
14523 2 99 95 119
14524 4 99 95 116
14525 2 99 95 125
14526 4 96 95 115
14527 4 96 95 119
14528 2 96 95 116
14529 2 96 95 125
14530 2 115 95 119
14531 2 115 95 116
14532 3 115 95 125
14533 3 119 95 116
14534 2 119 95 125
14535 2 116 95 125
14536 3 71 96 91
14537 3 71 96 100
14538 3 71 96 97
14539 3 71 96 76
14540 6 71 96 121
14541 1 71 96 66
14542 1 71 96 75
14543 1 71 96 72
14544 1 71 96 51
14545 3 71 96 95
14546 3 71 96 92
14547 3 71 96 80
14548 3 71 96 77
14549 5 71 96 116
14550 5 71 96 125
14551 5 71 96 122
14552 5 71 96 101
14553 3 91 96 100
14554 3 91 96 97
14555 6 91 96 76
14556 3 91 96 121
14557 1 91 96 66
14558 3 91 96 75
14559 3 91 96 72
14560 5 91 96 51
14561 1 91 96 95
14562 1 91 96 92
14563 5 91 96 80
14564 5 91 96 77
14565 1 91 96 116
14566 3 91 96 125
14567 3 91 96 122
14568 5 91 96 101
14569 6 100 96 97
14570 3 100 96 76
14571 3 100 96 121
14572 3 100 96 66
14573 1 100 96 75
14574 5 100 96 72
14575 3 100 96 51
14576 1 100 96 95
14577 5 100 96 92
14578 1 100 96 80
14579 5 100 96 77
14580 3 100 96 116
14581 1 100 96 125
14582 5 100 96 122
14583 3 100 96 101
14584 3 97 96 76
14585 3 97 96 121
14586 3 97 96 66
14587 5 97 96 75
14588 1 97 96 72
14589 3 97 96 51
14590 5 97 96 95
14591 1 97 96 92
14592 5 97 96 80
14593 1 97 96 77
14594 3 97 96 116
14595 5 97 96 125
14596 1 97 96 122
14597 3 97 96 101
14598 3 76 96 121
14599 5 76 96 66
14600 3 76 96 75
14601 3 76 96 72
14602 1 76 96 51
14603 5 76 96 95
14604 5 76 96 92
14605 1 76 96 80
14606 1 76 96 77
14607 5 76 96 116
14608 3 76 96 125
14609 3 76 96 122
14610 1 76 96 101
14611 5 121 96 66
14612 5 121 96 75
14613 5 121 96 72
14614 5 121 96 51
14615 3 121 96 95
14616 3 121 96 92
14617 3 121 96 80
14618 3 121 96 77
14619 1 121 96 116
14620 1 121 96 125
14621 1 121 96 122
14622 1 121 96 101
14623 2 66 96 75
14624 2 66 96 72
14625 3 66 96 51
14626 2 66 96 95
14627 2 66 96 92
14628 4 66 96 80
14629 4 66 96 77
14630 3 66 96 116
14631 4 66 96 125
14632 4 66 96 122
14633 6 66 96 101
14634 3 75 96 72
14635 2 75 96 51
14636 2 75 96 95
14637 4 75 96 92
14638 2 75 96 80
14639 4 75 96 77
14640 4 75 96 116
14641 3 75 96 125
14642 6 75 96 122
14643 4 75 96 101
14644 2 72 96 51
14645 4 72 96 95
14646 2 72 96 92
14647 4 72 96 80
14648 2 72 96 77
14649 4 72 96 116
14650 6 72 96 125
14651 3 72 96 122
14652 4 72 96 101
14653 4 51 96 95
14654 4 51 96 92
14655 2 51 96 80
14656 2 51 96 77
14657 6 51 96 116
14658 4 51 96 125
14659 4 51 96 122
14660 3 51 96 101
14661 3 95 96 92
14662 3 95 96 80
14663 6 95 96 77
14664 2 95 96 116
14665 2 95 96 125
14666 4 95 96 122
14667 4 95 96 101
14668 6 92 96 80
14669 3 92 96 77
14670 2 92 96 116
14671 4 92 96 125
14672 2 92 96 122
14673 4 92 96 101
14674 3 80 96 77
14675 4 80 96 116
14676 2 80 96 125
14677 4 80 96 122
14678 2 80 96 101
14679 4 77 96 116
14680 4 77 96 125
14681 2 77 96 122
14682 2 77 96 101
14683 2 116 96 125
14684 2 116 96 122
14685 3 116 96 101
14686 3 125 96 122
14687 2 125 96 101
14688 2 122 96 101
14689 3 72 97 92
14690 3 72 97 96
14691 3 72 97 98
14692 3 72 97 77
14693 6 72 97 122
14694 1 72 97 67
14695 1 72 97 71
14696 1 72 97 73
14697 1 72 97 52
14698 3 72 97 91
14699 3 72 97 93
14700 3 72 97 76
14701 3 72 97 78
14702 5 72 97 117
14703 5 72 97 121
14704 5 72 97 123
14705 5 72 97 102
14706 3 92 97 96
14707 3 92 97 98
14708 6 92 97 77
14709 3 92 97 122
14710 1 92 97 67
14711 3 92 97 71
14712 3 92 97 73
14713 5 92 97 52
14714 1 92 97 91
14715 1 92 97 93
14716 5 92 97 76
14717 5 92 97 78
14718 1 92 97 117
14719 3 92 97 121
14720 3 92 97 123
14721 5 92 97 102
14722 6 96 97 98
14723 3 96 97 77
14724 3 96 97 122
14725 3 96 97 67
14726 1 96 97 71
14727 5 96 97 73
14728 3 96 97 52
14729 1 96 97 91
14730 5 96 97 93
14731 1 96 97 76
14732 5 96 97 78
14733 3 96 97 117
14734 1 96 97 121
14735 5 96 97 123
14736 3 96 97 102
14737 3 98 97 77
14738 3 98 97 122
14739 3 98 97 67
14740 5 98 97 71
14741 1 98 97 73
14742 3 98 97 52
14743 5 98 97 91
14744 1 98 97 93
14745 5 98 97 76
14746 1 98 97 78
14747 3 98 97 117
14748 5 98 97 121
14749 1 98 97 123
14750 3 98 97 102
14751 3 77 97 122
14752 5 77 97 67
14753 3 77 97 71
14754 3 77 97 73
14755 1 77 97 52
14756 5 77 97 91
14757 5 77 97 93
14758 1 77 97 76
14759 1 77 97 78
14760 5 77 97 117
14761 3 77 97 121
14762 3 77 97 123
14763 1 77 97 102
14764 5 122 97 67
14765 5 122 97 71
14766 5 122 97 73
14767 5 122 97 52
14768 3 122 97 91
14769 3 122 97 93
14770 3 122 97 76
14771 3 122 97 78
14772 1 122 97 117
14773 1 122 97 121
14774 1 122 97 123
14775 1 122 97 102
14776 2 67 97 71
14777 2 67 97 73
14778 3 67 97 52
14779 2 67 97 91
14780 2 67 97 93
14781 4 67 97 76
14782 4 67 97 78
14783 3 67 97 117
14784 4 67 97 121
14785 4 67 97 123
14786 6 67 97 102
14787 3 71 97 73
14788 2 71 97 52
14789 2 71 97 91
14790 4 71 97 93
14791 2 71 97 76
14792 4 71 97 78
14793 4 71 97 117
14794 3 71 97 121
14795 6 71 97 123
14796 4 71 97 102
14797 2 73 97 52
14798 4 73 97 91
14799 2 73 97 93
14800 4 73 97 76
14801 2 73 97 78
14802 4 73 97 117
14803 6 73 97 121
14804 3 73 97 123
14805 4 73 97 102
14806 4 52 97 91
14807 4 52 97 93
14808 2 52 97 76
14809 2 52 97 78
14810 6 52 97 117
14811 4 52 97 121
14812 4 52 97 123
14813 3 52 97 102
14814 3 91 97 93
14815 3 91 97 76
14816 6 91 97 78
14817 2 91 97 117
14818 2 91 97 121
14819 4 91 97 123
14820 4 91 97 102
14821 6 93 97 76
14822 3 93 97 78
14823 2 93 97 117
14824 4 93 97 121
14825 2 93 97 123
14826 4 93 97 102
14827 3 76 97 78
14828 4 76 97 117
14829 2 76 97 121
14830 4 76 97 123
14831 2 76 97 102
14832 4 78 97 117
14833 4 78 97 121
14834 2 78 97 123
14835 2 78 97 102
14836 2 117 97 121
14837 2 117 97 123
14838 3 117 97 102
14839 3 121 97 123
14840 2 121 97 102
14841 2 123 97 102
14842 3 73 98 93
14843 3 73 98 97
14844 3 73 98 99
14845 3 73 98 78
14846 6 73 98 123
14847 1 73 98 68
14848 1 73 98 72
14849 1 73 98 74
14850 1 73 98 53
14851 3 73 98 92
14852 3 73 98 94
14853 3 73 98 77
14854 3 73 98 79
14855 5 73 98 118
14856 5 73 98 122
14857 5 73 98 124
14858 5 73 98 103
14859 3 93 98 97
14860 3 93 98 99
14861 6 93 98 78
14862 3 93 98 123
14863 1 93 98 68
14864 3 93 98 72
14865 3 93 98 74
14866 5 93 98 53
14867 1 93 98 92
14868 1 93 98 94
14869 5 93 98 77
14870 5 93 98 79
14871 1 93 98 118
14872 3 93 98 122
14873 3 93 98 124
14874 5 93 98 103
14875 6 97 98 99
14876 3 97 98 78
14877 3 97 98 123
14878 3 97 98 68
14879 1 97 98 72
14880 5 97 98 74
14881 3 97 98 53
14882 1 97 98 92
14883 5 97 98 94
14884 1 97 98 77
14885 5 97 98 79
14886 3 97 98 118
14887 1 97 98 122
14888 5 97 98 124
14889 3 97 98 103
14890 3 99 98 78
14891 3 99 98 123
14892 3 99 98 68
14893 5 99 98 72
14894 1 99 98 74
14895 3 99 98 53
14896 5 99 98 92
14897 1 99 98 94
14898 5 99 98 77
14899 1 99 98 79
14900 3 99 98 118
14901 5 99 98 122
14902 1 99 98 124
14903 3 99 98 103
14904 3 78 98 123
14905 5 78 98 68
14906 3 78 98 72
14907 3 78 98 74
14908 1 78 98 53
14909 5 78 98 92
14910 5 78 98 94
14911 1 78 98 77
14912 1 78 98 79
14913 5 78 98 118
14914 3 78 98 122
14915 3 78 98 124
14916 1 78 98 103
14917 5 123 98 68
14918 5 123 98 72
14919 5 123 98 74
14920 5 123 98 53
14921 3 123 98 92
14922 3 123 98 94
14923 3 123 98 77
14924 3 123 98 79
14925 1 123 98 118
14926 1 123 98 122
14927 1 123 98 124
14928 1 123 98 103
14929 2 68 98 72
14930 2 68 98 74
14931 3 68 98 53
14932 2 68 98 92
14933 2 68 98 94
14934 4 68 98 77
14935 4 68 98 79
14936 3 68 98 118
14937 4 68 98 122
14938 4 68 98 124
14939 6 68 98 103
14940 3 72 98 74
14941 2 72 98 53
14942 2 72 98 92
14943 4 72 98 94
14944 2 72 98 77
14945 4 72 98 79
14946 4 72 98 118
14947 3 72 98 122
14948 6 72 98 124
14949 4 72 98 103
14950 2 74 98 53
14951 4 74 98 92
14952 2 74 98 94
14953 4 74 98 77
14954 2 74 98 79
14955 4 74 98 118
14956 6 74 98 122
14957 3 74 98 124
14958 4 74 98 103
14959 4 53 98 92
14960 4 53 98 94
14961 2 53 98 77
14962 2 53 98 79
14963 6 53 98 118
14964 4 53 98 122
14965 4 53 98 124
14966 3 53 98 103
14967 3 92 98 94
14968 3 92 98 77
14969 6 92 98 79
14970 2 92 98 118
14971 2 92 98 122
14972 4 92 98 124
14973 4 92 98 103
14974 6 94 98 77
14975 3 94 98 79
14976 2 94 98 118
14977 4 94 98 122
14978 2 94 98 124
14979 4 94 98 103
14980 3 77 98 79
14981 4 77 98 118
14982 2 77 98 122
14983 4 77 98 124
14984 2 77 98 103
14985 4 79 98 118
14986 4 79 98 122
14987 2 79 98 124
14988 2 79 98 103
14989 2 118 98 122
14990 2 118 98 124
14991 3 118 98 103
14992 3 122 98 124
14993 2 122 98 103
14994 2 124 98 103
14995 3 74 99 94
14996 3 74 99 98
14997 3 74 99 100
14998 3 74 99 79
14999 6 74 99 124
15000 1 74 99 69
15001 1 74 99 73
15002 1 74 99 75
15003 1 74 99 54
15004 3 74 99 93
15005 3 74 99 95
15006 3 74 99 78
15007 3 74 99 80
15008 5 74 99 119
15009 5 74 99 123
15010 5 74 99 125
15011 5 74 99 104
15012 3 94 99 98
15013 3 94 99 100
15014 6 94 99 79
15015 3 94 99 124
15016 1 94 99 69
15017 3 94 99 73
15018 3 94 99 75
15019 5 94 99 54
15020 1 94 99 93
15021 1 94 99 95
15022 5 94 99 78
15023 5 94 99 80
15024 1 94 99 119
15025 3 94 99 123
15026 3 94 99 125
15027 5 94 99 104
15028 6 98 99 100
15029 3 98 99 79
15030 3 98 99 124
15031 3 98 99 69
15032 1 98 99 73
15033 5 98 99 75
15034 3 98 99 54
15035 1 98 99 93
15036 5 98 99 95
15037 1 98 99 78
15038 5 98 99 80
15039 3 98 99 119
15040 1 98 99 123
15041 5 98 99 125
15042 3 98 99 104
15043 3 100 99 79
15044 3 100 99 124
15045 3 100 99 69
15046 5 100 99 73
15047 1 100 99 75
15048 3 100 99 54
15049 5 100 99 93
15050 1 100 99 95
15051 5 100 99 78
15052 1 100 99 80
15053 3 100 99 119
15054 5 100 99 123
15055 1 100 99 125
15056 3 100 99 104
15057 3 79 99 124
15058 5 79 99 69
15059 3 79 99 73
15060 3 79 99 75
15061 1 79 99 54
15062 5 79 99 93
15063 5 79 99 95
15064 1 79 99 78
15065 1 79 99 80
15066 5 79 99 119
15067 3 79 99 123
15068 3 79 99 125
15069 1 79 99 104
15070 5 124 99 69
15071 5 124 99 73
15072 5 124 99 75
15073 5 124 99 54
15074 3 124 99 93
15075 3 124 99 95
15076 3 124 99 78
15077 3 124 99 80
15078 1 124 99 119
15079 1 124 99 123
15080 1 124 99 125
15081 1 124 99 104
15082 2 69 99 73
15083 2 69 99 75
15084 3 69 99 54
15085 2 69 99 93
15086 2 69 99 95
15087 4 69 99 78
15088 4 69 99 80
15089 3 69 99 119
15090 4 69 99 123
15091 4 69 99 125
15092 6 69 99 104
15093 3 73 99 75
15094 2 73 99 54
15095 2 73 99 93
15096 4 73 99 95
15097 2 73 99 78
15098 4 73 99 80
15099 4 73 99 119
15100 3 73 99 123
15101 6 73 99 125
15102 4 73 99 104
15103 2 75 99 54
15104 4 75 99 93
15105 2 75 99 95
15106 4 75 99 78
15107 2 75 99 80
15108 4 75 99 119
15109 6 75 99 123
15110 3 75 99 125
15111 4 75 99 104
15112 4 54 99 93
15113 4 54 99 95
15114 2 54 99 78
15115 2 54 99 80
15116 6 54 99 119
15117 4 54 99 123
15118 4 54 99 125
15119 3 54 99 104
15120 3 93 99 95
15121 3 93 99 78
15122 6 93 99 80
15123 2 93 99 119
15124 2 93 99 123
15125 4 93 99 125
15126 4 93 99 104
15127 6 95 99 78
15128 3 95 99 80
15129 2 95 99 119
15130 4 95 99 123
15131 2 95 99 125
15132 4 95 99 104
15133 3 78 99 80
15134 4 78 99 119
15135 2 78 99 123
15136 4 78 99 125
15137 2 78 99 104
15138 4 80 99 119
15139 4 80 99 123
15140 2 80 99 125
15141 2 80 99 104
15142 2 119 99 123
15143 2 119 99 125
15144 3 119 99 104
15145 3 123 99 125
15146 2 123 99 104
15147 2 125 99 104
15148 3 75 100 95
15149 3 75 100 99
15150 3 75 100 96
15151 3 75 100 80
15152 6 75 100 125
15153 1 75 100 70
15154 1 75 100 74
15155 1 75 100 71
15156 1 75 100 55
15157 3 75 100 94
15158 3 75 100 91
15159 3 75 100 79
15160 3 75 100 76
15161 5 75 100 120
15162 5 75 100 124
15163 5 75 100 121
15164 5 75 100 105
15165 3 95 100 99
15166 3 95 100 96
15167 6 95 100 80
15168 3 95 100 125
15169 1 95 100 70
15170 3 95 100 74
15171 3 95 100 71
15172 5 95 100 55
15173 1 95 100 94
15174 1 95 100 91
15175 5 95 100 79
15176 5 95 100 76
15177 1 95 100 120
15178 3 95 100 124
15179 3 95 100 121
15180 5 95 100 105
15181 6 99 100 96
15182 3 99 100 80
15183 3 99 100 125
15184 3 99 100 70
15185 1 99 100 74
15186 5 99 100 71
15187 3 99 100 55
15188 1 99 100 94
15189 5 99 100 91
15190 1 99 100 79
15191 5 99 100 76
15192 3 99 100 120
15193 1 99 100 124
15194 5 99 100 121
15195 3 99 100 105
15196 3 96 100 80
15197 3 96 100 125
15198 3 96 100 70
15199 5 96 100 74
15200 1 96 100 71
15201 3 96 100 55
15202 5 96 100 94
15203 1 96 100 91
15204 5 96 100 79
15205 1 96 100 76
15206 3 96 100 120
15207 5 96 100 124
15208 1 96 100 121
15209 3 96 100 105
15210 3 80 100 125
15211 5 80 100 70
15212 3 80 100 74
15213 3 80 100 71
15214 1 80 100 55
15215 5 80 100 94
15216 5 80 100 91
15217 1 80 100 79
15218 1 80 100 76
15219 5 80 100 120
15220 3 80 100 124
15221 3 80 100 121
15222 1 80 100 105
15223 5 125 100 70
15224 5 125 100 74
15225 5 125 100 71
15226 5 125 100 55
15227 3 125 100 94
15228 3 125 100 91
15229 3 125 100 79
15230 3 125 100 76
15231 1 125 100 120
15232 1 125 100 124
15233 1 125 100 121
15234 1 125 100 105
15235 2 70 100 74
15236 2 70 100 71
15237 3 70 100 55
15238 2 70 100 94
15239 2 70 100 91
15240 4 70 100 79
15241 4 70 100 76
15242 3 70 100 120
15243 4 70 100 124
15244 4 70 100 121
15245 6 70 100 105
15246 3 74 100 71
15247 2 74 100 55
15248 2 74 100 94
15249 4 74 100 91
15250 2 74 100 79
15251 4 74 100 76
15252 4 74 100 120
15253 3 74 100 124
15254 6 74 100 121
15255 4 74 100 105
15256 2 71 100 55
15257 4 71 100 94
15258 2 71 100 91
15259 4 71 100 79
15260 2 71 100 76
15261 4 71 100 120
15262 6 71 100 124
15263 3 71 100 121
15264 4 71 100 105
15265 4 55 100 94
15266 4 55 100 91
15267 2 55 100 79
15268 2 55 100 76
15269 6 55 100 120
15270 4 55 100 124
15271 4 55 100 121
15272 3 55 100 105
15273 3 94 100 91
15274 3 94 100 79
15275 6 94 100 76
15276 2 94 100 120
15277 2 94 100 124
15278 4 94 100 121
15279 4 94 100 105
15280 6 91 100 79
15281 3 91 100 76
15282 2 91 100 120
15283 4 91 100 124
15284 2 91 100 121
15285 4 91 100 105
15286 3 79 100 76
15287 4 79 100 120
15288 2 79 100 124
15289 4 79 100 121
15290 2 79 100 105
15291 4 76 100 120
15292 4 76 100 124
15293 2 76 100 121
15294 2 76 100 105
15295 2 120 100 124
15296 2 120 100 121
15297 3 120 100 105
15298 3 124 100 121
15299 2 124 100 105
15300 2 121 100 105
15301 3 76 101 121
15302 3 76 101 105
15303 3 76 101 102
15304 3 76 101 106
15305 6 76 101 1
15306 1 76 101 96
15307 1 76 101 80
15308 1 76 101 77
15309 1 76 101 81
15310 3 76 101 125
15311 3 76 101 122
15312 3 76 101 110
15313 3 76 101 107
15314 5 76 101 21
15315 5 76 101 5
15316 5 76 101 2
15317 5 76 101 6
15318 3 121 101 105
15319 3 121 101 102
15320 6 121 101 106
15321 3 121 101 1
15322 1 121 101 96
15323 3 121 101 80
15324 3 121 101 77
15325 5 121 101 81
15326 1 121 101 125
15327 1 121 101 122
15328 5 121 101 110
15329 5 121 101 107
15330 1 121 101 21
15331 3 121 101 5
15332 3 121 101 2
15333 5 121 101 6
15334 6 105 101 102
15335 3 105 101 106
15336 3 105 101 1
15337 3 105 101 96
15338 1 105 101 80
15339 5 105 101 77
15340 3 105 101 81
15341 1 105 101 125
15342 5 105 101 122
15343 1 105 101 110
15344 5 105 101 107
15345 3 105 101 21
15346 1 105 101 5
15347 5 105 101 2
15348 3 105 101 6
15349 3 102 101 106
15350 3 102 101 1
15351 3 102 101 96
15352 5 102 101 80
15353 1 102 101 77
15354 3 102 101 81
15355 5 102 101 125
15356 1 102 101 122
15357 5 102 101 110
15358 1 102 101 107
15359 3 102 101 21
15360 5 102 101 5
15361 1 102 101 2
15362 3 102 101 6
15363 3 106 101 1
15364 5 106 101 96
15365 3 106 101 80
15366 3 106 101 77
15367 1 106 101 81
15368 5 106 101 125
15369 5 106 101 122
15370 1 106 101 110
15371 1 106 101 107
15372 5 106 101 21
15373 3 106 101 5
15374 3 106 101 2
15375 1 106 101 6
15376 5 1 101 96
15377 5 1 101 80
15378 5 1 101 77
15379 5 1 101 81
15380 3 1 101 125
15381 3 1 101 122
15382 3 1 101 110
15383 3 1 101 107
15384 1 1 101 21
15385 1 1 101 5
15386 1 1 101 2
15387 1 1 101 6
15388 2 96 101 80
15389 2 96 101 77
15390 3 96 101 81
15391 2 96 101 125
15392 2 96 101 122
15393 4 96 101 110
15394 4 96 101 107
15395 3 96 101 21
15396 4 96 101 5
15397 4 96 101 2
15398 6 96 101 6
15399 3 80 101 77
15400 2 80 101 81
15401 2 80 101 125
15402 4 80 101 122
15403 2 80 101 110
15404 4 80 101 107
15405 4 80 101 21
15406 3 80 101 5
15407 6 80 101 2
15408 4 80 101 6
15409 2 77 101 81
15410 4 77 101 125
15411 2 77 101 122
15412 4 77 101 110
15413 2 77 101 107
15414 4 77 101 21
15415 6 77 101 5
15416 3 77 101 2
15417 4 77 101 6
15418 4 81 101 125
15419 4 81 101 122
15420 2 81 101 110
15421 2 81 101 107
15422 6 81 101 21
15423 4 81 101 5
15424 4 81 101 2
15425 3 81 101 6
15426 3 125 101 122
15427 3 125 101 110
15428 6 125 101 107
15429 2 125 101 21
15430 2 125 101 5
15431 4 125 101 2
15432 4 125 101 6
15433 6 122 101 110
15434 3 122 101 107
15435 2 122 101 21
15436 4 122 101 5
15437 2 122 101 2
15438 4 122 101 6
15439 3 110 101 107
15440 4 110 101 21
15441 2 110 101 5
15442 4 110 101 2
15443 2 110 101 6
15444 4 107 101 21
15445 4 107 101 5
15446 2 107 101 2
15447 2 107 101 6
15448 2 21 101 5
15449 2 21 101 2
15450 3 21 101 6
15451 3 5 101 2
15452 2 5 101 6
15453 2 2 101 6
15454 3 77 102 122
15455 3 77 102 101
15456 3 77 102 103
15457 3 77 102 107
15458 6 77 102 2
15459 1 77 102 97
15460 1 77 102 76
15461 1 77 102 78
15462 1 77 102 82
15463 3 77 102 121
15464 3 77 102 123
15465 3 77 102 106
15466 3 77 102 108
15467 5 77 102 22
15468 5 77 102 1
15469 5 77 102 3
15470 5 77 102 7
15471 3 122 102 101
15472 3 122 102 103
15473 6 122 102 107
15474 3 122 102 2
15475 1 122 102 97
15476 3 122 102 76
15477 3 122 102 78
15478 5 122 102 82
15479 1 122 102 121
15480 1 122 102 123
15481 5 122 102 106
15482 5 122 102 108
15483 1 122 102 22
15484 3 122 102 1
15485 3 122 102 3
15486 5 122 102 7
15487 6 101 102 103
15488 3 101 102 107
15489 3 101 102 2
15490 3 101 102 97
15491 1 101 102 76
15492 5 101 102 78
15493 3 101 102 82
15494 1 101 102 121
15495 5 101 102 123
15496 1 101 102 106
15497 5 101 102 108
15498 3 101 102 22
15499 1 101 102 1
15500 5 101 102 3
15501 3 101 102 7
15502 3 103 102 107
15503 3 103 102 2
15504 3 103 102 97
15505 5 103 102 76
15506 1 103 102 78
15507 3 103 102 82
15508 5 103 102 121
15509 1 103 102 123
15510 5 103 102 106
15511 1 103 102 108
15512 3 103 102 22
15513 5 103 102 1
15514 1 103 102 3
15515 3 103 102 7
15516 3 107 102 2
15517 5 107 102 97
15518 3 107 102 76
15519 3 107 102 78
15520 1 107 102 82
15521 5 107 102 121
15522 5 107 102 123
15523 1 107 102 106
15524 1 107 102 108
15525 5 107 102 22
15526 3 107 102 1
15527 3 107 102 3
15528 1 107 102 7
15529 5 2 102 97
15530 5 2 102 76
15531 5 2 102 78
15532 5 2 102 82
15533 3 2 102 121
15534 3 2 102 123
15535 3 2 102 106
15536 3 2 102 108
15537 1 2 102 22
15538 1 2 102 1
15539 1 2 102 3
15540 1 2 102 7
15541 2 97 102 76
15542 2 97 102 78
15543 3 97 102 82
15544 2 97 102 121
15545 2 97 102 123
15546 4 97 102 106
15547 4 97 102 108
15548 3 97 102 22
15549 4 97 102 1
15550 4 97 102 3
15551 6 97 102 7
15552 3 76 102 78
15553 2 76 102 82
15554 2 76 102 121
15555 4 76 102 123
15556 2 76 102 106
15557 4 76 102 108
15558 4 76 102 22
15559 3 76 102 1
15560 6 76 102 3
15561 4 76 102 7
15562 2 78 102 82
15563 4 78 102 121
15564 2 78 102 123
15565 4 78 102 106
15566 2 78 102 108
15567 4 78 102 22
15568 6 78 102 1
15569 3 78 102 3
15570 4 78 102 7
15571 4 82 102 121
15572 4 82 102 123
15573 2 82 102 106
15574 2 82 102 108
15575 6 82 102 22
15576 4 82 102 1
15577 4 82 102 3
15578 3 82 102 7
15579 3 121 102 123
15580 3 121 102 106
15581 6 121 102 108
15582 2 121 102 22
15583 2 121 102 1
15584 4 121 102 3
15585 4 121 102 7
15586 6 123 102 106
15587 3 123 102 108
15588 2 123 102 22
15589 4 123 102 1
15590 2 123 102 3
15591 4 123 102 7
15592 3 106 102 108
15593 4 106 102 22
15594 2 106 102 1
15595 4 106 102 3
15596 2 106 102 7
15597 4 108 102 22
15598 4 108 102 1
15599 2 108 102 3
15600 2 108 102 7
15601 2 22 102 1
15602 2 22 102 3
15603 3 22 102 7
15604 3 1 102 3
15605 2 1 102 7
15606 2 3 102 7
15607 3 78 103 123
15608 3 78 103 102
15609 3 78 103 104
15610 3 78 103 108
15611 6 78 103 3
15612 1 78 103 98
15613 1 78 103 77
15614 1 78 103 79
15615 1 78 103 83
15616 3 78 103 122
15617 3 78 103 124
15618 3 78 103 107
15619 3 78 103 109
15620 5 78 103 23
15621 5 78 103 2
15622 5 78 103 4
15623 5 78 103 8
15624 3 123 103 102
15625 3 123 103 104
15626 6 123 103 108
15627 3 123 103 3
15628 1 123 103 98
15629 3 123 103 77
15630 3 123 103 79
15631 5 123 103 83
15632 1 123 103 122
15633 1 123 103 124
15634 5 123 103 107
15635 5 123 103 109
15636 1 123 103 23
15637 3 123 103 2
15638 3 123 103 4
15639 5 123 103 8
15640 6 102 103 104
15641 3 102 103 108
15642 3 102 103 3
15643 3 102 103 98
15644 1 102 103 77
15645 5 102 103 79
15646 3 102 103 83
15647 1 102 103 122
15648 5 102 103 124
15649 1 102 103 107
15650 5 102 103 109
15651 3 102 103 23
15652 1 102 103 2
15653 5 102 103 4
15654 3 102 103 8
15655 3 104 103 108
15656 3 104 103 3
15657 3 104 103 98
15658 5 104 103 77
15659 1 104 103 79
15660 3 104 103 83
15661 5 104 103 122
15662 1 104 103 124
15663 5 104 103 107
15664 1 104 103 109
15665 3 104 103 23
15666 5 104 103 2
15667 1 104 103 4
15668 3 104 103 8
15669 3 108 103 3
15670 5 108 103 98
15671 3 108 103 77
15672 3 108 103 79
15673 1 108 103 83
15674 5 108 103 122
15675 5 108 103 124
15676 1 108 103 107
15677 1 108 103 109
15678 5 108 103 23
15679 3 108 103 2
15680 3 108 103 4
15681 1 108 103 8
15682 5 3 103 98
15683 5 3 103 77
15684 5 3 103 79
15685 5 3 103 83
15686 3 3 103 122
15687 3 3 103 124
15688 3 3 103 107
15689 3 3 103 109
15690 1 3 103 23
15691 1 3 103 2
15692 1 3 103 4
15693 1 3 103 8
15694 2 98 103 77
15695 2 98 103 79
15696 3 98 103 83
15697 2 98 103 122
15698 2 98 103 124
15699 4 98 103 107
15700 4 98 103 109
15701 3 98 103 23
15702 4 98 103 2
15703 4 98 103 4
15704 6 98 103 8
15705 3 77 103 79
15706 2 77 103 83
15707 2 77 103 122
15708 4 77 103 124
15709 2 77 103 107
15710 4 77 103 109
15711 4 77 103 23
15712 3 77 103 2
15713 6 77 103 4
15714 4 77 103 8
15715 2 79 103 83
15716 4 79 103 122
15717 2 79 103 124
15718 4 79 103 107
15719 2 79 103 109
15720 4 79 103 23
15721 6 79 103 2
15722 3 79 103 4
15723 4 79 103 8
15724 4 83 103 122
15725 4 83 103 124
15726 2 83 103 107
15727 2 83 103 109
15728 6 83 103 23
15729 4 83 103 2
15730 4 83 103 4
15731 3 83 103 8
15732 3 122 103 124
15733 3 122 103 107
15734 6 122 103 109
15735 2 122 103 23
15736 2 122 103 2
15737 4 122 103 4
15738 4 122 103 8
15739 6 124 103 107
15740 3 124 103 109
15741 2 124 103 23
15742 4 124 103 2
15743 2 124 103 4
15744 4 124 103 8
15745 3 107 103 109
15746 4 107 103 23
15747 2 107 103 2
15748 4 107 103 4
15749 2 107 103 8
15750 4 109 103 23
15751 4 109 103 2
15752 2 109 103 4
15753 2 109 103 8
15754 2 23 103 2
15755 2 23 103 4
15756 3 23 103 8
15757 3 2 103 4
15758 2 2 103 8
15759 2 4 103 8
15760 3 79 104 124
15761 3 79 104 103
15762 3 79 104 105
15763 3 79 104 109
15764 6 79 104 4
15765 1 79 104 99
15766 1 79 104 78
15767 1 79 104 80
15768 1 79 104 84
15769 3 79 104 123
15770 3 79 104 125
15771 3 79 104 108
15772 3 79 104 110
15773 5 79 104 24
15774 5 79 104 3
15775 5 79 104 5
15776 5 79 104 9
15777 3 124 104 103
15778 3 124 104 105
15779 6 124 104 109
15780 3 124 104 4
15781 1 124 104 99
15782 3 124 104 78
15783 3 124 104 80
15784 5 124 104 84
15785 1 124 104 123
15786 1 124 104 125
15787 5 124 104 108
15788 5 124 104 110
15789 1 124 104 24
15790 3 124 104 3
15791 3 124 104 5
15792 5 124 104 9
15793 6 103 104 105
15794 3 103 104 109
15795 3 103 104 4
15796 3 103 104 99
15797 1 103 104 78
15798 5 103 104 80
15799 3 103 104 84
15800 1 103 104 123
15801 5 103 104 125
15802 1 103 104 108
15803 5 103 104 110
15804 3 103 104 24
15805 1 103 104 3
15806 5 103 104 5
15807 3 103 104 9
15808 3 105 104 109
15809 3 105 104 4
15810 3 105 104 99
15811 5 105 104 78
15812 1 105 104 80
15813 3 105 104 84
15814 5 105 104 123
15815 1 105 104 125
15816 5 105 104 108
15817 1 105 104 110
15818 3 105 104 24
15819 5 105 104 3
15820 1 105 104 5
15821 3 105 104 9
15822 3 109 104 4
15823 5 109 104 99
15824 3 109 104 78
15825 3 109 104 80
15826 1 109 104 84
15827 5 109 104 123
15828 5 109 104 125
15829 1 109 104 108
15830 1 109 104 110
15831 5 109 104 24
15832 3 109 104 3
15833 3 109 104 5
15834 1 109 104 9
15835 5 4 104 99
15836 5 4 104 78
15837 5 4 104 80
15838 5 4 104 84
15839 3 4 104 123
15840 3 4 104 125
15841 3 4 104 108
15842 3 4 104 110
15843 1 4 104 24
15844 1 4 104 3
15845 1 4 104 5
15846 1 4 104 9
15847 2 99 104 78
15848 2 99 104 80
15849 3 99 104 84
15850 2 99 104 123
15851 2 99 104 125
15852 4 99 104 108
15853 4 99 104 110
15854 3 99 104 24
15855 4 99 104 3
15856 4 99 104 5
15857 6 99 104 9
15858 3 78 104 80
15859 2 78 104 84
15860 2 78 104 123
15861 4 78 104 125
15862 2 78 104 108
15863 4 78 104 110
15864 4 78 104 24
15865 3 78 104 3
15866 6 78 104 5
15867 4 78 104 9
15868 2 80 104 84
15869 4 80 104 123
15870 2 80 104 125
15871 4 80 104 108
15872 2 80 104 110
15873 4 80 104 24
15874 6 80 104 3
15875 3 80 104 5
15876 4 80 104 9
15877 4 84 104 123
15878 4 84 104 125
15879 2 84 104 108
15880 2 84 104 110
15881 6 84 104 24
15882 4 84 104 3
15883 4 84 104 5
15884 3 84 104 9
15885 3 123 104 125
15886 3 123 104 108
15887 6 123 104 110
15888 2 123 104 24
15889 2 123 104 3
15890 4 123 104 5
15891 4 123 104 9
15892 6 125 104 108
15893 3 125 104 110
15894 2 125 104 24
15895 4 125 104 3
15896 2 125 104 5
15897 4 125 104 9
15898 3 108 104 110
15899 4 108 104 24
15900 2 108 104 3
15901 4 108 104 5
15902 2 108 104 9
15903 4 110 104 24
15904 4 110 104 3
15905 2 110 104 5
15906 2 110 104 9
15907 2 24 104 3
15908 2 24 104 5
15909 3 24 104 9
15910 3 3 104 5
15911 2 3 104 9
15912 2 5 104 9
15913 3 80 105 125
15914 3 80 105 104
15915 3 80 105 101
15916 3 80 105 110
15917 6 80 105 5
15918 1 80 105 100
15919 1 80 105 79
15920 1 80 105 76
15921 1 80 105 85
15922 3 80 105 124
15923 3 80 105 121
15924 3 80 105 109
15925 3 80 105 106
15926 5 80 105 25
15927 5 80 105 4
15928 5 80 105 1
15929 5 80 105 10
15930 3 125 105 104
15931 3 125 105 101
15932 6 125 105 110
15933 3 125 105 5
15934 1 125 105 100
15935 3 125 105 79
15936 3 125 105 76
15937 5 125 105 85
15938 1 125 105 124
15939 1 125 105 121
15940 5 125 105 109
15941 5 125 105 106
15942 1 125 105 25
15943 3 125 105 4
15944 3 125 105 1
15945 5 125 105 10
15946 6 104 105 101
15947 3 104 105 110
15948 3 104 105 5
15949 3 104 105 100
15950 1 104 105 79
15951 5 104 105 76
15952 3 104 105 85
15953 1 104 105 124
15954 5 104 105 121
15955 1 104 105 109
15956 5 104 105 106
15957 3 104 105 25
15958 1 104 105 4
15959 5 104 105 1
15960 3 104 105 10
15961 3 101 105 110
15962 3 101 105 5
15963 3 101 105 100
15964 5 101 105 79
15965 1 101 105 76
15966 3 101 105 85
15967 5 101 105 124
15968 1 101 105 121
15969 5 101 105 109
15970 1 101 105 106
15971 3 101 105 25
15972 5 101 105 4
15973 1 101 105 1
15974 3 101 105 10
15975 3 110 105 5
15976 5 110 105 100
15977 3 110 105 79
15978 3 110 105 76
15979 1 110 105 85
15980 5 110 105 124
15981 5 110 105 121
15982 1 110 105 109
15983 1 110 105 106
15984 5 110 105 25
15985 3 110 105 4
15986 3 110 105 1
15987 1 110 105 10
15988 5 5 105 100
15989 5 5 105 79
15990 5 5 105 76
15991 5 5 105 85
15992 3 5 105 124
15993 3 5 105 121
15994 3 5 105 109
15995 3 5 105 106
15996 1 5 105 25
15997 1 5 105 4
15998 1 5 105 1
15999 1 5 105 10
16000 2 100 105 79
16001 2 100 105 76
16002 3 100 105 85
16003 2 100 105 124
16004 2 100 105 121
16005 4 100 105 109
16006 4 100 105 106
16007 3 100 105 25
16008 4 100 105 4
16009 4 100 105 1
16010 6 100 105 10
16011 3 79 105 76
16012 2 79 105 85
16013 2 79 105 124
16014 4 79 105 121
16015 2 79 105 109
16016 4 79 105 106
16017 4 79 105 25
16018 3 79 105 4
16019 6 79 105 1
16020 4 79 105 10
16021 2 76 105 85
16022 4 76 105 124
16023 2 76 105 121
16024 4 76 105 109
16025 2 76 105 106
16026 4 76 105 25
16027 6 76 105 4
16028 3 76 105 1
16029 4 76 105 10
16030 4 85 105 124
16031 4 85 105 121
16032 2 85 105 109
16033 2 85 105 106
16034 6 85 105 25
16035 4 85 105 4
16036 4 85 105 1
16037 3 85 105 10
16038 3 124 105 121
16039 3 124 105 109
16040 6 124 105 106
16041 2 124 105 25
16042 2 124 105 4
16043 4 124 105 1
16044 4 124 105 10
16045 6 121 105 109
16046 3 121 105 106
16047 2 121 105 25
16048 4 121 105 4
16049 2 121 105 1
16050 4 121 105 10
16051 3 109 105 106
16052 4 109 105 25
16053 2 109 105 4
16054 4 109 105 1
16055 2 109 105 10
16056 4 106 105 25
16057 4 106 105 4
16058 2 106 105 1
16059 2 106 105 10
16060 2 25 105 4
16061 2 25 105 1
16062 3 25 105 10
16063 3 4 105 1
16064 2 4 105 10
16065 2 1 105 10
16066 3 81 106 101
16067 3 81 106 110
16068 3 81 106 107
16069 3 81 106 111
16070 6 81 106 6
16071 1 81 106 76
16072 1 81 106 85
16073 1 81 106 82
16074 1 81 106 86
16075 3 81 106 105
16076 3 81 106 102
16077 3 81 106 115
16078 3 81 106 112
16079 5 81 106 1
16080 5 81 106 10
16081 5 81 106 7
16082 5 81 106 11
16083 3 101 106 110
16084 3 101 106 107
16085 6 101 106 111
16086 3 101 106 6
16087 1 101 106 76
16088 3 101 106 85
16089 3 101 106 82
16090 5 101 106 86
16091 1 101 106 105
16092 1 101 106 102
16093 5 101 106 115
16094 5 101 106 112
16095 1 101 106 1
16096 3 101 106 10
16097 3 101 106 7
16098 5 101 106 11
16099 6 110 106 107
16100 3 110 106 111
16101 3 110 106 6
16102 3 110 106 76
16103 1 110 106 85
16104 5 110 106 82
16105 3 110 106 86
16106 1 110 106 105
16107 5 110 106 102
16108 1 110 106 115
16109 5 110 106 112
16110 3 110 106 1
16111 1 110 106 10
16112 5 110 106 7
16113 3 110 106 11
16114 3 107 106 111
16115 3 107 106 6
16116 3 107 106 76
16117 5 107 106 85
16118 1 107 106 82
16119 3 107 106 86
16120 5 107 106 105
16121 1 107 106 102
16122 5 107 106 115
16123 1 107 106 112
16124 3 107 106 1
16125 5 107 106 10
16126 1 107 106 7
16127 3 107 106 11
16128 3 111 106 6
16129 5 111 106 76
16130 3 111 106 85
16131 3 111 106 82
16132 1 111 106 86
16133 5 111 106 105
16134 5 111 106 102
16135 1 111 106 115
16136 1 111 106 112
16137 5 111 106 1
16138 3 111 106 10
16139 3 111 106 7
16140 1 111 106 11
16141 5 6 106 76
16142 5 6 106 85
16143 5 6 106 82
16144 5 6 106 86
16145 3 6 106 105
16146 3 6 106 102
16147 3 6 106 115
16148 3 6 106 112
16149 1 6 106 1
16150 1 6 106 10
16151 1 6 106 7
16152 1 6 106 11
16153 2 76 106 85
16154 2 76 106 82
16155 3 76 106 86
16156 2 76 106 105
16157 2 76 106 102
16158 4 76 106 115
16159 4 76 106 112
16160 3 76 106 1
16161 4 76 106 10
16162 4 76 106 7
16163 6 76 106 11
16164 3 85 106 82
16165 2 85 106 86
16166 2 85 106 105
16167 4 85 106 102
16168 2 85 106 115
16169 4 85 106 112
16170 4 85 106 1
16171 3 85 106 10
16172 6 85 106 7
16173 4 85 106 11
16174 2 82 106 86
16175 4 82 106 105
16176 2 82 106 102
16177 4 82 106 115
16178 2 82 106 112
16179 4 82 106 1
16180 6 82 106 10
16181 3 82 106 7
16182 4 82 106 11
16183 4 86 106 105
16184 4 86 106 102
16185 2 86 106 115
16186 2 86 106 112
16187 6 86 106 1
16188 4 86 106 10
16189 4 86 106 7
16190 3 86 106 11
16191 3 105 106 102
16192 3 105 106 115
16193 6 105 106 112
16194 2 105 106 1
16195 2 105 106 10
16196 4 105 106 7
16197 4 105 106 11
16198 6 102 106 115
16199 3 102 106 112
16200 2 102 106 1
16201 4 102 106 10
16202 2 102 106 7
16203 4 102 106 11
16204 3 115 106 112
16205 4 115 106 1
16206 2 115 106 10
16207 4 115 106 7
16208 2 115 106 11
16209 4 112 106 1
16210 4 112 106 10
16211 2 112 106 7
16212 2 112 106 11
16213 2 1 106 10
16214 2 1 106 7
16215 3 1 106 11
16216 3 10 106 7
16217 2 10 106 11
16218 2 7 106 11
16219 3 82 107 102
16220 3 82 107 106
16221 3 82 107 108
16222 3 82 107 112
16223 6 82 107 7
16224 1 82 107 77
16225 1 82 107 81
16226 1 82 107 83
16227 1 82 107 87
16228 3 82 107 101
16229 3 82 107 103
16230 3 82 107 111
16231 3 82 107 113
16232 5 82 107 2
16233 5 82 107 6
16234 5 82 107 8
16235 5 82 107 12
16236 3 102 107 106
16237 3 102 107 108
16238 6 102 107 112
16239 3 102 107 7
16240 1 102 107 77
16241 3 102 107 81
16242 3 102 107 83
16243 5 102 107 87
16244 1 102 107 101
16245 1 102 107 103
16246 5 102 107 111
16247 5 102 107 113
16248 1 102 107 2
16249 3 102 107 6
16250 3 102 107 8
16251 5 102 107 12
16252 6 106 107 108
16253 3 106 107 112
16254 3 106 107 7
16255 3 106 107 77
16256 1 106 107 81
16257 5 106 107 83
16258 3 106 107 87
16259 1 106 107 101
16260 5 106 107 103
16261 1 106 107 111
16262 5 106 107 113
16263 3 106 107 2
16264 1 106 107 6
16265 5 106 107 8
16266 3 106 107 12
16267 3 108 107 112
16268 3 108 107 7
16269 3 108 107 77
16270 5 108 107 81
16271 1 108 107 83
16272 3 108 107 87
16273 5 108 107 101
16274 1 108 107 103
16275 5 108 107 111
16276 1 108 107 113
16277 3 108 107 2
16278 5 108 107 6
16279 1 108 107 8
16280 3 108 107 12
16281 3 112 107 7
16282 5 112 107 77
16283 3 112 107 81
16284 3 112 107 83
16285 1 112 107 87
16286 5 112 107 101
16287 5 112 107 103
16288 1 112 107 111
16289 1 112 107 113
16290 5 112 107 2
16291 3 112 107 6
16292 3 112 107 8
16293 1 112 107 12
16294 5 7 107 77
16295 5 7 107 81
16296 5 7 107 83
16297 5 7 107 87
16298 3 7 107 101
16299 3 7 107 103
16300 3 7 107 111
16301 3 7 107 113
16302 1 7 107 2
16303 1 7 107 6
16304 1 7 107 8
16305 1 7 107 12
16306 2 77 107 81
16307 2 77 107 83
16308 3 77 107 87
16309 2 77 107 101
16310 2 77 107 103
16311 4 77 107 111
16312 4 77 107 113
16313 3 77 107 2
16314 4 77 107 6
16315 4 77 107 8
16316 6 77 107 12
16317 3 81 107 83
16318 2 81 107 87
16319 2 81 107 101
16320 4 81 107 103
16321 2 81 107 111
16322 4 81 107 113
16323 4 81 107 2
16324 3 81 107 6
16325 6 81 107 8
16326 4 81 107 12
16327 2 83 107 87
16328 4 83 107 101
16329 2 83 107 103
16330 4 83 107 111
16331 2 83 107 113
16332 4 83 107 2
16333 6 83 107 6
16334 3 83 107 8
16335 4 83 107 12
16336 4 87 107 101
16337 4 87 107 103
16338 2 87 107 111
16339 2 87 107 113
16340 6 87 107 2
16341 4 87 107 6
16342 4 87 107 8
16343 3 87 107 12
16344 3 101 107 103
16345 3 101 107 111
16346 6 101 107 113
16347 2 101 107 2
16348 2 101 107 6
16349 4 101 107 8
16350 4 101 107 12
16351 6 103 107 111
16352 3 103 107 113
16353 2 103 107 2
16354 4 103 107 6
16355 2 103 107 8
16356 4 103 107 12
16357 3 111 107 113
16358 4 111 107 2
16359 2 111 107 6
16360 4 111 107 8
16361 2 111 107 12
16362 4 113 107 2
16363 4 113 107 6
16364 2 113 107 8
16365 2 113 107 12
16366 2 2 107 6
16367 2 2 107 8
16368 3 2 107 12
16369 3 6 107 8
16370 2 6 107 12
16371 2 8 107 12
16372 3 83 108 103
16373 3 83 108 107
16374 3 83 108 109
16375 3 83 108 113
16376 6 83 108 8
16377 1 83 108 78
16378 1 83 108 82
16379 1 83 108 84
16380 1 83 108 88
16381 3 83 108 102
16382 3 83 108 104
16383 3 83 108 112
16384 3 83 108 114
16385 5 83 108 3
16386 5 83 108 7
16387 5 83 108 9
16388 5 83 108 13
16389 3 103 108 107
16390 3 103 108 109
16391 6 103 108 113
16392 3 103 108 8
16393 1 103 108 78
16394 3 103 108 82
16395 3 103 108 84
16396 5 103 108 88
16397 1 103 108 102
16398 1 103 108 104
16399 5 103 108 112
16400 5 103 108 114
16401 1 103 108 3
16402 3 103 108 7
16403 3 103 108 9
16404 5 103 108 13
16405 6 107 108 109
16406 3 107 108 113
16407 3 107 108 8
16408 3 107 108 78
16409 1 107 108 82
16410 5 107 108 84
16411 3 107 108 88
16412 1 107 108 102
16413 5 107 108 104
16414 1 107 108 112
16415 5 107 108 114
16416 3 107 108 3
16417 1 107 108 7
16418 5 107 108 9
16419 3 107 108 13
16420 3 109 108 113
16421 3 109 108 8
16422 3 109 108 78
16423 5 109 108 82
16424 1 109 108 84
16425 3 109 108 88
16426 5 109 108 102
16427 1 109 108 104
16428 5 109 108 112
16429 1 109 108 114
16430 3 109 108 3
16431 5 109 108 7
16432 1 109 108 9
16433 3 109 108 13
16434 3 113 108 8
16435 5 113 108 78
16436 3 113 108 82
16437 3 113 108 84
16438 1 113 108 88
16439 5 113 108 102
16440 5 113 108 104
16441 1 113 108 112
16442 1 113 108 114
16443 5 113 108 3
16444 3 113 108 7
16445 3 113 108 9
16446 1 113 108 13
16447 5 8 108 78
16448 5 8 108 82
16449 5 8 108 84
16450 5 8 108 88
16451 3 8 108 102
16452 3 8 108 104
16453 3 8 108 112
16454 3 8 108 114
16455 1 8 108 3
16456 1 8 108 7
16457 1 8 108 9
16458 1 8 108 13
16459 2 78 108 82
16460 2 78 108 84
16461 3 78 108 88
16462 2 78 108 102
16463 2 78 108 104
16464 4 78 108 112
16465 4 78 108 114
16466 3 78 108 3
16467 4 78 108 7
16468 4 78 108 9
16469 6 78 108 13
16470 3 82 108 84
16471 2 82 108 88
16472 2 82 108 102
16473 4 82 108 104
16474 2 82 108 112
16475 4 82 108 114
16476 4 82 108 3
16477 3 82 108 7
16478 6 82 108 9
16479 4 82 108 13
16480 2 84 108 88
16481 4 84 108 102
16482 2 84 108 104
16483 4 84 108 112
16484 2 84 108 114
16485 4 84 108 3
16486 6 84 108 7
16487 3 84 108 9
16488 4 84 108 13
16489 4 88 108 102
16490 4 88 108 104
16491 2 88 108 112
16492 2 88 108 114
16493 6 88 108 3
16494 4 88 108 7
16495 4 88 108 9
16496 3 88 108 13
16497 3 102 108 104
16498 3 102 108 112
16499 6 102 108 114
16500 2 102 108 3
16501 2 102 108 7
16502 4 102 108 9
16503 4 102 108 13
16504 6 104 108 112
16505 3 104 108 114
16506 2 104 108 3
16507 4 104 108 7
16508 2 104 108 9
16509 4 104 108 13
16510 3 112 108 114
16511 4 112 108 3
16512 2 112 108 7
16513 4 112 108 9
16514 2 112 108 13
16515 4 114 108 3
16516 4 114 108 7
16517 2 114 108 9
16518 2 114 108 13
16519 2 3 108 7
16520 2 3 108 9
16521 3 3 108 13
16522 3 7 108 9
16523 2 7 108 13
16524 2 9 108 13
16525 3 84 109 104
16526 3 84 109 108
16527 3 84 109 110
16528 3 84 109 114
16529 6 84 109 9
16530 1 84 109 79
16531 1 84 109 83
16532 1 84 109 85
16533 1 84 109 89
16534 3 84 109 103
16535 3 84 109 105
16536 3 84 109 113
16537 3 84 109 115
16538 5 84 109 4
16539 5 84 109 8
16540 5 84 109 10
16541 5 84 109 14
16542 3 104 109 108
16543 3 104 109 110
16544 6 104 109 114
16545 3 104 109 9
16546 1 104 109 79
16547 3 104 109 83
16548 3 104 109 85
16549 5 104 109 89
16550 1 104 109 103
16551 1 104 109 105
16552 5 104 109 113
16553 5 104 109 115
16554 1 104 109 4
16555 3 104 109 8
16556 3 104 109 10
16557 5 104 109 14
16558 6 108 109 110
16559 3 108 109 114
16560 3 108 109 9
16561 3 108 109 79
16562 1 108 109 83
16563 5 108 109 85
16564 3 108 109 89
16565 1 108 109 103
16566 5 108 109 105
16567 1 108 109 113
16568 5 108 109 115
16569 3 108 109 4
16570 1 108 109 8
16571 5 108 109 10
16572 3 108 109 14
16573 3 110 109 114
16574 3 110 109 9
16575 3 110 109 79
16576 5 110 109 83
16577 1 110 109 85
16578 3 110 109 89
16579 5 110 109 103
16580 1 110 109 105
16581 5 110 109 113
16582 1 110 109 115
16583 3 110 109 4
16584 5 110 109 8
16585 1 110 109 10
16586 3 110 109 14
16587 3 114 109 9
16588 5 114 109 79
16589 3 114 109 83
16590 3 114 109 85
16591 1 114 109 89
16592 5 114 109 103
16593 5 114 109 105
16594 1 114 109 113
16595 1 114 109 115
16596 5 114 109 4
16597 3 114 109 8
16598 3 114 109 10
16599 1 114 109 14
16600 5 9 109 79
16601 5 9 109 83
16602 5 9 109 85
16603 5 9 109 89
16604 3 9 109 103
16605 3 9 109 105
16606 3 9 109 113
16607 3 9 109 115
16608 1 9 109 4
16609 1 9 109 8
16610 1 9 109 10
16611 1 9 109 14
16612 2 79 109 83
16613 2 79 109 85
16614 3 79 109 89
16615 2 79 109 103
16616 2 79 109 105
16617 4 79 109 113
16618 4 79 109 115
16619 3 79 109 4
16620 4 79 109 8
16621 4 79 109 10
16622 6 79 109 14
16623 3 83 109 85
16624 2 83 109 89
16625 2 83 109 103
16626 4 83 109 105
16627 2 83 109 113
16628 4 83 109 115
16629 4 83 109 4
16630 3 83 109 8
16631 6 83 109 10
16632 4 83 109 14
16633 2 85 109 89
16634 4 85 109 103
16635 2 85 109 105
16636 4 85 109 113
16637 2 85 109 115
16638 4 85 109 4
16639 6 85 109 8
16640 3 85 109 10
16641 4 85 109 14
16642 4 89 109 103
16643 4 89 109 105
16644 2 89 109 113
16645 2 89 109 115
16646 6 89 109 4
16647 4 89 109 8
16648 4 89 109 10
16649 3 89 109 14
16650 3 103 109 105
16651 3 103 109 113
16652 6 103 109 115
16653 2 103 109 4
16654 2 103 109 8
16655 4 103 109 10
16656 4 103 109 14
16657 6 105 109 113
16658 3 105 109 115
16659 2 105 109 4
16660 4 105 109 8
16661 2 105 109 10
16662 4 105 109 14
16663 3 113 109 115
16664 4 113 109 4
16665 2 113 109 8
16666 4 113 109 10
16667 2 113 109 14
16668 4 115 109 4
16669 4 115 109 8
16670 2 115 109 10
16671 2 115 109 14
16672 2 4 109 8
16673 2 4 109 10
16674 3 4 109 14
16675 3 8 109 10
16676 2 8 109 14
16677 2 10 109 14
16678 3 85 110 105
16679 3 85 110 109
16680 3 85 110 106
16681 3 85 110 115
16682 6 85 110 10
16683 1 85 110 80
16684 1 85 110 84
16685 1 85 110 81
16686 1 85 110 90
16687 3 85 110 104
16688 3 85 110 101
16689 3 85 110 114
16690 3 85 110 111
16691 5 85 110 5
16692 5 85 110 9
16693 5 85 110 6
16694 5 85 110 15
16695 3 105 110 109
16696 3 105 110 106
16697 6 105 110 115
16698 3 105 110 10
16699 1 105 110 80
16700 3 105 110 84
16701 3 105 110 81
16702 5 105 110 90
16703 1 105 110 104
16704 1 105 110 101
16705 5 105 110 114
16706 5 105 110 111
16707 1 105 110 5
16708 3 105 110 9
16709 3 105 110 6
16710 5 105 110 15
16711 6 109 110 106
16712 3 109 110 115
16713 3 109 110 10
16714 3 109 110 80
16715 1 109 110 84
16716 5 109 110 81
16717 3 109 110 90
16718 1 109 110 104
16719 5 109 110 101
16720 1 109 110 114
16721 5 109 110 111
16722 3 109 110 5
16723 1 109 110 9
16724 5 109 110 6
16725 3 109 110 15
16726 3 106 110 115
16727 3 106 110 10
16728 3 106 110 80
16729 5 106 110 84
16730 1 106 110 81
16731 3 106 110 90
16732 5 106 110 104
16733 1 106 110 101
16734 5 106 110 114
16735 1 106 110 111
16736 3 106 110 5
16737 5 106 110 9
16738 1 106 110 6
16739 3 106 110 15
16740 3 115 110 10
16741 5 115 110 80
16742 3 115 110 84
16743 3 115 110 81
16744 1 115 110 90
16745 5 115 110 104
16746 5 115 110 101
16747 1 115 110 114
16748 1 115 110 111
16749 5 115 110 5
16750 3 115 110 9
16751 3 115 110 6
16752 1 115 110 15
16753 5 10 110 80
16754 5 10 110 84
16755 5 10 110 81
16756 5 10 110 90
16757 3 10 110 104
16758 3 10 110 101
16759 3 10 110 114
16760 3 10 110 111
16761 1 10 110 5
16762 1 10 110 9
16763 1 10 110 6
16764 1 10 110 15
16765 2 80 110 84
16766 2 80 110 81
16767 3 80 110 90
16768 2 80 110 104
16769 2 80 110 101
16770 4 80 110 114
16771 4 80 110 111
16772 3 80 110 5
16773 4 80 110 9
16774 4 80 110 6
16775 6 80 110 15
16776 3 84 110 81
16777 2 84 110 90
16778 2 84 110 104
16779 4 84 110 101
16780 2 84 110 114
16781 4 84 110 111
16782 4 84 110 5
16783 3 84 110 9
16784 6 84 110 6
16785 4 84 110 15
16786 2 81 110 90
16787 4 81 110 104
16788 2 81 110 101
16789 4 81 110 114
16790 2 81 110 111
16791 4 81 110 5
16792 6 81 110 9
16793 3 81 110 6
16794 4 81 110 15
16795 4 90 110 104
16796 4 90 110 101
16797 2 90 110 114
16798 2 90 110 111
16799 6 90 110 5
16800 4 90 110 9
16801 4 90 110 6
16802 3 90 110 15
16803 3 104 110 101
16804 3 104 110 114
16805 6 104 110 111
16806 2 104 110 5
16807 2 104 110 9
16808 4 104 110 6
16809 4 104 110 15
16810 6 101 110 114
16811 3 101 110 111
16812 2 101 110 5
16813 4 101 110 9
16814 2 101 110 6
16815 4 101 110 15
16816 3 114 110 111
16817 4 114 110 5
16818 2 114 110 9
16819 4 114 110 6
16820 2 114 110 15
16821 4 111 110 5
16822 4 111 110 9
16823 2 111 110 6
16824 2 111 110 15
16825 2 5 110 9
16826 2 5 110 6
16827 3 5 110 15
16828 3 9 110 6
16829 2 9 110 15
16830 2 6 110 15
16831 3 86 111 106
16832 3 86 111 115
16833 3 86 111 112
16834 3 86 111 116
16835 6 86 111 11
16836 1 86 111 81
16837 1 86 111 90
16838 1 86 111 87
16839 1 86 111 91
16840 3 86 111 110
16841 3 86 111 107
16842 3 86 111 120
16843 3 86 111 117
16844 5 86 111 6
16845 5 86 111 15
16846 5 86 111 12
16847 5 86 111 16
16848 3 106 111 115
16849 3 106 111 112
16850 6 106 111 116
16851 3 106 111 11
16852 1 106 111 81
16853 3 106 111 90
16854 3 106 111 87
16855 5 106 111 91
16856 1 106 111 110
16857 1 106 111 107
16858 5 106 111 120
16859 5 106 111 117
16860 1 106 111 6
16861 3 106 111 15
16862 3 106 111 12
16863 5 106 111 16
16864 6 115 111 112
16865 3 115 111 116
16866 3 115 111 11
16867 3 115 111 81
16868 1 115 111 90
16869 5 115 111 87
16870 3 115 111 91
16871 1 115 111 110
16872 5 115 111 107
16873 1 115 111 120
16874 5 115 111 117
16875 3 115 111 6
16876 1 115 111 15
16877 5 115 111 12
16878 3 115 111 16
16879 3 112 111 116
16880 3 112 111 11
16881 3 112 111 81
16882 5 112 111 90
16883 1 112 111 87
16884 3 112 111 91
16885 5 112 111 110
16886 1 112 111 107
16887 5 112 111 120
16888 1 112 111 117
16889 3 112 111 6
16890 5 112 111 15
16891 1 112 111 12
16892 3 112 111 16
16893 3 116 111 11
16894 5 116 111 81
16895 3 116 111 90
16896 3 116 111 87
16897 1 116 111 91
16898 5 116 111 110
16899 5 116 111 107
16900 1 116 111 120
16901 1 116 111 117
16902 5 116 111 6
16903 3 116 111 15
16904 3 116 111 12
16905 1 116 111 16
16906 5 11 111 81
16907 5 11 111 90
16908 5 11 111 87
16909 5 11 111 91
16910 3 11 111 110
16911 3 11 111 107
16912 3 11 111 120
16913 3 11 111 117
16914 1 11 111 6
16915 1 11 111 15
16916 1 11 111 12
16917 1 11 111 16
16918 2 81 111 90
16919 2 81 111 87
16920 3 81 111 91
16921 2 81 111 110
16922 2 81 111 107
16923 4 81 111 120
16924 4 81 111 117
16925 3 81 111 6
16926 4 81 111 15
16927 4 81 111 12
16928 6 81 111 16
16929 3 90 111 87
16930 2 90 111 91
16931 2 90 111 110
16932 4 90 111 107
16933 2 90 111 120
16934 4 90 111 117
16935 4 90 111 6
16936 3 90 111 15
16937 6 90 111 12
16938 4 90 111 16
16939 2 87 111 91
16940 4 87 111 110
16941 2 87 111 107
16942 4 87 111 120
16943 2 87 111 117
16944 4 87 111 6
16945 6 87 111 15
16946 3 87 111 12
16947 4 87 111 16
16948 4 91 111 110
16949 4 91 111 107
16950 2 91 111 120
16951 2 91 111 117
16952 6 91 111 6
16953 4 91 111 15
16954 4 91 111 12
16955 3 91 111 16
16956 3 110 111 107
16957 3 110 111 120
16958 6 110 111 117
16959 2 110 111 6
16960 2 110 111 15
16961 4 110 111 12
16962 4 110 111 16
16963 6 107 111 120
16964 3 107 111 117
16965 2 107 111 6
16966 4 107 111 15
16967 2 107 111 12
16968 4 107 111 16
16969 3 120 111 117
16970 4 120 111 6
16971 2 120 111 15
16972 4 120 111 12
16973 2 120 111 16
16974 4 117 111 6
16975 4 117 111 15
16976 2 117 111 12
16977 2 117 111 16
16978 2 6 111 15
16979 2 6 111 12
16980 3 6 111 16
16981 3 15 111 12
16982 2 15 111 16
16983 2 12 111 16
16984 3 87 112 107
16985 3 87 112 111
16986 3 87 112 113
16987 3 87 112 117
16988 6 87 112 12
16989 1 87 112 82
16990 1 87 112 86
16991 1 87 112 88
16992 1 87 112 92
16993 3 87 112 106
16994 3 87 112 108
16995 3 87 112 116
16996 3 87 112 118
16997 5 87 112 7
16998 5 87 112 11
16999 5 87 112 13
17000 5 87 112 17
17001 3 107 112 111
17002 3 107 112 113
17003 6 107 112 117
17004 3 107 112 12
17005 1 107 112 82
17006 3 107 112 86
17007 3 107 112 88
17008 5 107 112 92
17009 1 107 112 106
17010 1 107 112 108
17011 5 107 112 116
17012 5 107 112 118
17013 1 107 112 7
17014 3 107 112 11
17015 3 107 112 13
17016 5 107 112 17
17017 6 111 112 113
17018 3 111 112 117
17019 3 111 112 12
17020 3 111 112 82
17021 1 111 112 86
17022 5 111 112 88
17023 3 111 112 92
17024 1 111 112 106
17025 5 111 112 108
17026 1 111 112 116
17027 5 111 112 118
17028 3 111 112 7
17029 1 111 112 11
17030 5 111 112 13
17031 3 111 112 17
17032 3 113 112 117
17033 3 113 112 12
17034 3 113 112 82
17035 5 113 112 86
17036 1 113 112 88
17037 3 113 112 92
17038 5 113 112 106
17039 1 113 112 108
17040 5 113 112 116
17041 1 113 112 118
17042 3 113 112 7
17043 5 113 112 11
17044 1 113 112 13
17045 3 113 112 17
17046 3 117 112 12
17047 5 117 112 82
17048 3 117 112 86
17049 3 117 112 88
17050 1 117 112 92
17051 5 117 112 106
17052 5 117 112 108
17053 1 117 112 116
17054 1 117 112 118
17055 5 117 112 7
17056 3 117 112 11
17057 3 117 112 13
17058 1 117 112 17
17059 5 12 112 82
17060 5 12 112 86
17061 5 12 112 88
17062 5 12 112 92
17063 3 12 112 106
17064 3 12 112 108
17065 3 12 112 116
17066 3 12 112 118
17067 1 12 112 7
17068 1 12 112 11
17069 1 12 112 13
17070 1 12 112 17
17071 2 82 112 86
17072 2 82 112 88
17073 3 82 112 92
17074 2 82 112 106
17075 2 82 112 108
17076 4 82 112 116
17077 4 82 112 118
17078 3 82 112 7
17079 4 82 112 11
17080 4 82 112 13
17081 6 82 112 17
17082 3 86 112 88
17083 2 86 112 92
17084 2 86 112 106
17085 4 86 112 108
17086 2 86 112 116
17087 4 86 112 118
17088 4 86 112 7
17089 3 86 112 11
17090 6 86 112 13
17091 4 86 112 17
17092 2 88 112 92
17093 4 88 112 106
17094 2 88 112 108
17095 4 88 112 116
17096 2 88 112 118
17097 4 88 112 7
17098 6 88 112 11
17099 3 88 112 13
17100 4 88 112 17
17101 4 92 112 106
17102 4 92 112 108
17103 2 92 112 116
17104 2 92 112 118
17105 6 92 112 7
17106 4 92 112 11
17107 4 92 112 13
17108 3 92 112 17
17109 3 106 112 108
17110 3 106 112 116
17111 6 106 112 118
17112 2 106 112 7
17113 2 106 112 11
17114 4 106 112 13
17115 4 106 112 17
17116 6 108 112 116
17117 3 108 112 118
17118 2 108 112 7
17119 4 108 112 11
17120 2 108 112 13
17121 4 108 112 17
17122 3 116 112 118
17123 4 116 112 7
17124 2 116 112 11
17125 4 116 112 13
17126 2 116 112 17
17127 4 118 112 7
17128 4 118 112 11
17129 2 118 112 13
17130 2 118 112 17
17131 2 7 112 11
17132 2 7 112 13
17133 3 7 112 17
17134 3 11 112 13
17135 2 11 112 17
17136 2 13 112 17
17137 3 88 113 108
17138 3 88 113 112
17139 3 88 113 114
17140 3 88 113 118
17141 6 88 113 13
17142 1 88 113 83
17143 1 88 113 87
17144 1 88 113 89
17145 1 88 113 93
17146 3 88 113 107
17147 3 88 113 109
17148 3 88 113 117
17149 3 88 113 119
17150 5 88 113 8
17151 5 88 113 12
17152 5 88 113 14
17153 5 88 113 18
17154 3 108 113 112
17155 3 108 113 114
17156 6 108 113 118
17157 3 108 113 13
17158 1 108 113 83
17159 3 108 113 87
17160 3 108 113 89
17161 5 108 113 93
17162 1 108 113 107
17163 1 108 113 109
17164 5 108 113 117
17165 5 108 113 119
17166 1 108 113 8
17167 3 108 113 12
17168 3 108 113 14
17169 5 108 113 18
17170 6 112 113 114
17171 3 112 113 118
17172 3 112 113 13
17173 3 112 113 83
17174 1 112 113 87
17175 5 112 113 89
17176 3 112 113 93
17177 1 112 113 107
17178 5 112 113 109
17179 1 112 113 117
17180 5 112 113 119
17181 3 112 113 8
17182 1 112 113 12
17183 5 112 113 14
17184 3 112 113 18
17185 3 114 113 118
17186 3 114 113 13
17187 3 114 113 83
17188 5 114 113 87
17189 1 114 113 89
17190 3 114 113 93
17191 5 114 113 107
17192 1 114 113 109
17193 5 114 113 117
17194 1 114 113 119
17195 3 114 113 8
17196 5 114 113 12
17197 1 114 113 14
17198 3 114 113 18
17199 3 118 113 13
17200 5 118 113 83
17201 3 118 113 87
17202 3 118 113 89
17203 1 118 113 93
17204 5 118 113 107
17205 5 118 113 109
17206 1 118 113 117
17207 1 118 113 119
17208 5 118 113 8
17209 3 118 113 12
17210 3 118 113 14
17211 1 118 113 18
17212 5 13 113 83
17213 5 13 113 87
17214 5 13 113 89
17215 5 13 113 93
17216 3 13 113 107
17217 3 13 113 109
17218 3 13 113 117
17219 3 13 113 119
17220 1 13 113 8
17221 1 13 113 12
17222 1 13 113 14
17223 1 13 113 18
17224 2 83 113 87
17225 2 83 113 89
17226 3 83 113 93
17227 2 83 113 107
17228 2 83 113 109
17229 4 83 113 117
17230 4 83 113 119
17231 3 83 113 8
17232 4 83 113 12
17233 4 83 113 14
17234 6 83 113 18
17235 3 87 113 89
17236 2 87 113 93
17237 2 87 113 107
17238 4 87 113 109
17239 2 87 113 117
17240 4 87 113 119
17241 4 87 113 8
17242 3 87 113 12
17243 6 87 113 14
17244 4 87 113 18
17245 2 89 113 93
17246 4 89 113 107
17247 2 89 113 109
17248 4 89 113 117
17249 2 89 113 119
17250 4 89 113 8
17251 6 89 113 12
17252 3 89 113 14
17253 4 89 113 18
17254 4 93 113 107
17255 4 93 113 109
17256 2 93 113 117
17257 2 93 113 119
17258 6 93 113 8
17259 4 93 113 12
17260 4 93 113 14
17261 3 93 113 18
17262 3 107 113 109
17263 3 107 113 117
17264 6 107 113 119
17265 2 107 113 8
17266 2 107 113 12
17267 4 107 113 14
17268 4 107 113 18
17269 6 109 113 117
17270 3 109 113 119
17271 2 109 113 8
17272 4 109 113 12
17273 2 109 113 14
17274 4 109 113 18
17275 3 117 113 119
17276 4 117 113 8
17277 2 117 113 12
17278 4 117 113 14
17279 2 117 113 18
17280 4 119 113 8
17281 4 119 113 12
17282 2 119 113 14
17283 2 119 113 18
17284 2 8 113 12
17285 2 8 113 14
17286 3 8 113 18
17287 3 12 113 14
17288 2 12 113 18
17289 2 14 113 18
17290 3 89 114 109
17291 3 89 114 113
17292 3 89 114 115
17293 3 89 114 119
17294 6 89 114 14
17295 1 89 114 84
17296 1 89 114 88
17297 1 89 114 90
17298 1 89 114 94
17299 3 89 114 108
17300 3 89 114 110
17301 3 89 114 118
17302 3 89 114 120
17303 5 89 114 9
17304 5 89 114 13
17305 5 89 114 15
17306 5 89 114 19
17307 3 109 114 113
17308 3 109 114 115
17309 6 109 114 119
17310 3 109 114 14
17311 1 109 114 84
17312 3 109 114 88
17313 3 109 114 90
17314 5 109 114 94
17315 1 109 114 108
17316 1 109 114 110
17317 5 109 114 118
17318 5 109 114 120
17319 1 109 114 9
17320 3 109 114 13
17321 3 109 114 15
17322 5 109 114 19
17323 6 113 114 115
17324 3 113 114 119
17325 3 113 114 14
17326 3 113 114 84
17327 1 113 114 88
17328 5 113 114 90
17329 3 113 114 94
17330 1 113 114 108
17331 5 113 114 110
17332 1 113 114 118
17333 5 113 114 120
17334 3 113 114 9
17335 1 113 114 13
17336 5 113 114 15
17337 3 113 114 19
17338 3 115 114 119
17339 3 115 114 14
17340 3 115 114 84
17341 5 115 114 88
17342 1 115 114 90
17343 3 115 114 94
17344 5 115 114 108
17345 1 115 114 110
17346 5 115 114 118
17347 1 115 114 120
17348 3 115 114 9
17349 5 115 114 13
17350 1 115 114 15
17351 3 115 114 19
17352 3 119 114 14
17353 5 119 114 84
17354 3 119 114 88
17355 3 119 114 90
17356 1 119 114 94
17357 5 119 114 108
17358 5 119 114 110
17359 1 119 114 118
17360 1 119 114 120
17361 5 119 114 9
17362 3 119 114 13
17363 3 119 114 15
17364 1 119 114 19
17365 5 14 114 84
17366 5 14 114 88
17367 5 14 114 90
17368 5 14 114 94
17369 3 14 114 108
17370 3 14 114 110
17371 3 14 114 118
17372 3 14 114 120
17373 1 14 114 9
17374 1 14 114 13
17375 1 14 114 15
17376 1 14 114 19
17377 2 84 114 88
17378 2 84 114 90
17379 3 84 114 94
17380 2 84 114 108
17381 2 84 114 110
17382 4 84 114 118
17383 4 84 114 120
17384 3 84 114 9
17385 4 84 114 13
17386 4 84 114 15
17387 6 84 114 19
17388 3 88 114 90
17389 2 88 114 94
17390 2 88 114 108
17391 4 88 114 110
17392 2 88 114 118
17393 4 88 114 120
17394 4 88 114 9
17395 3 88 114 13
17396 6 88 114 15
17397 4 88 114 19
17398 2 90 114 94
17399 4 90 114 108
17400 2 90 114 110
17401 4 90 114 118
17402 2 90 114 120
17403 4 90 114 9
17404 6 90 114 13
17405 3 90 114 15
17406 4 90 114 19
17407 4 94 114 108
17408 4 94 114 110
17409 2 94 114 118
17410 2 94 114 120
17411 6 94 114 9
17412 4 94 114 13
17413 4 94 114 15
17414 3 94 114 19
17415 3 108 114 110
17416 3 108 114 118
17417 6 108 114 120
17418 2 108 114 9
17419 2 108 114 13
17420 4 108 114 15
17421 4 108 114 19
17422 6 110 114 118
17423 3 110 114 120
17424 2 110 114 9
17425 4 110 114 13
17426 2 110 114 15
17427 4 110 114 19
17428 3 118 114 120
17429 4 118 114 9
17430 2 118 114 13
17431 4 118 114 15
17432 2 118 114 19
17433 4 120 114 9
17434 4 120 114 13
17435 2 120 114 15
17436 2 120 114 19
17437 2 9 114 13
17438 2 9 114 15
17439 3 9 114 19
17440 3 13 114 15
17441 2 13 114 19
17442 2 15 114 19
17443 3 90 115 110
17444 3 90 115 114
17445 3 90 115 111
17446 3 90 115 120
17447 6 90 115 15
17448 1 90 115 85
17449 1 90 115 89
17450 1 90 115 86
17451 1 90 115 95
17452 3 90 115 109
17453 3 90 115 106
17454 3 90 115 119
17455 3 90 115 116
17456 5 90 115 10
17457 5 90 115 14
17458 5 90 115 11
17459 5 90 115 20
17460 3 110 115 114
17461 3 110 115 111
17462 6 110 115 120
17463 3 110 115 15
17464 1 110 115 85
17465 3 110 115 89
17466 3 110 115 86
17467 5 110 115 95
17468 1 110 115 109
17469 1 110 115 106
17470 5 110 115 119
17471 5 110 115 116
17472 1 110 115 10
17473 3 110 115 14
17474 3 110 115 11
17475 5 110 115 20
17476 6 114 115 111
17477 3 114 115 120
17478 3 114 115 15
17479 3 114 115 85
17480 1 114 115 89
17481 5 114 115 86
17482 3 114 115 95
17483 1 114 115 109
17484 5 114 115 106
17485 1 114 115 119
17486 5 114 115 116
17487 3 114 115 10
17488 1 114 115 14
17489 5 114 115 11
17490 3 114 115 20
17491 3 111 115 120
17492 3 111 115 15
17493 3 111 115 85
17494 5 111 115 89
17495 1 111 115 86
17496 3 111 115 95
17497 5 111 115 109
17498 1 111 115 106
17499 5 111 115 119
17500 1 111 115 116
17501 3 111 115 10
17502 5 111 115 14
17503 1 111 115 11
17504 3 111 115 20
17505 3 120 115 15
17506 5 120 115 85
17507 3 120 115 89
17508 3 120 115 86
17509 1 120 115 95
17510 5 120 115 109
17511 5 120 115 106
17512 1 120 115 119
17513 1 120 115 116
17514 5 120 115 10
17515 3 120 115 14
17516 3 120 115 11
17517 1 120 115 20
17518 5 15 115 85
17519 5 15 115 89
17520 5 15 115 86
17521 5 15 115 95
17522 3 15 115 109
17523 3 15 115 106
17524 3 15 115 119
17525 3 15 115 116
17526 1 15 115 10
17527 1 15 115 14
17528 1 15 115 11
17529 1 15 115 20
17530 2 85 115 89
17531 2 85 115 86
17532 3 85 115 95
17533 2 85 115 109
17534 2 85 115 106
17535 4 85 115 119
17536 4 85 115 116
17537 3 85 115 10
17538 4 85 115 14
17539 4 85 115 11
17540 6 85 115 20
17541 3 89 115 86
17542 2 89 115 95
17543 2 89 115 109
17544 4 89 115 106
17545 2 89 115 119
17546 4 89 115 116
17547 4 89 115 10
17548 3 89 115 14
17549 6 89 115 11
17550 4 89 115 20
17551 2 86 115 95
17552 4 86 115 109
17553 2 86 115 106
17554 4 86 115 119
17555 2 86 115 116
17556 4 86 115 10
17557 6 86 115 14
17558 3 86 115 11
17559 4 86 115 20
17560 4 95 115 109
17561 4 95 115 106
17562 2 95 115 119
17563 2 95 115 116
17564 6 95 115 10
17565 4 95 115 14
17566 4 95 115 11
17567 3 95 115 20
17568 3 109 115 106
17569 3 109 115 119
17570 6 109 115 116
17571 2 109 115 10
17572 2 109 115 14
17573 4 109 115 11
17574 4 109 115 20
17575 6 106 115 119
17576 3 106 115 116
17577 2 106 115 10
17578 4 106 115 14
17579 2 106 115 11
17580 4 106 115 20
17581 3 119 115 116
17582 4 119 115 10
17583 2 119 115 14
17584 4 119 115 11
17585 2 119 115 20
17586 4 116 115 10
17587 4 116 115 14
17588 2 116 115 11
17589 2 116 115 20
17590 2 10 115 14
17591 2 10 115 11
17592 3 10 115 20
17593 3 14 115 11
17594 2 14 115 20
17595 2 11 115 20
17596 3 91 116 111
17597 3 91 116 120
17598 3 91 116 117
17599 3 91 116 121
17600 6 91 116 16
17601 1 91 116 86
17602 1 91 116 95
17603 1 91 116 92
17604 1 91 116 96
17605 3 91 116 115
17606 3 91 116 112
17607 3 91 116 125
17608 3 91 116 122
17609 5 91 116 11
17610 5 91 116 20
17611 5 91 116 17
17612 5 91 116 21
17613 3 111 116 120
17614 3 111 116 117
17615 6 111 116 121
17616 3 111 116 16
17617 1 111 116 86
17618 3 111 116 95
17619 3 111 116 92
17620 5 111 116 96
17621 1 111 116 115
17622 1 111 116 112
17623 5 111 116 125
17624 5 111 116 122
17625 1 111 116 11
17626 3 111 116 20
17627 3 111 116 17
17628 5 111 116 21
17629 6 120 116 117
17630 3 120 116 121
17631 3 120 116 16
17632 3 120 116 86
17633 1 120 116 95
17634 5 120 116 92
17635 3 120 116 96
17636 1 120 116 115
17637 5 120 116 112
17638 1 120 116 125
17639 5 120 116 122
17640 3 120 116 11
17641 1 120 116 20
17642 5 120 116 17
17643 3 120 116 21
17644 3 117 116 121
17645 3 117 116 16
17646 3 117 116 86
17647 5 117 116 95
17648 1 117 116 92
17649 3 117 116 96
17650 5 117 116 115
17651 1 117 116 112
17652 5 117 116 125
17653 1 117 116 122
17654 3 117 116 11
17655 5 117 116 20
17656 1 117 116 17
17657 3 117 116 21
17658 3 121 116 16
17659 5 121 116 86
17660 3 121 116 95
17661 3 121 116 92
17662 1 121 116 96
17663 5 121 116 115
17664 5 121 116 112
17665 1 121 116 125
17666 1 121 116 122
17667 5 121 116 11
17668 3 121 116 20
17669 3 121 116 17
17670 1 121 116 21
17671 5 16 116 86
17672 5 16 116 95
17673 5 16 116 92
17674 5 16 116 96
17675 3 16 116 115
17676 3 16 116 112
17677 3 16 116 125
17678 3 16 116 122
17679 1 16 116 11
17680 1 16 116 20
17681 1 16 116 17
17682 1 16 116 21
17683 2 86 116 95
17684 2 86 116 92
17685 3 86 116 96
17686 2 86 116 115
17687 2 86 116 112
17688 4 86 116 125
17689 4 86 116 122
17690 3 86 116 11
17691 4 86 116 20
17692 4 86 116 17
17693 6 86 116 21
17694 3 95 116 92
17695 2 95 116 96
17696 2 95 116 115
17697 4 95 116 112
17698 2 95 116 125
17699 4 95 116 122
17700 4 95 116 11
17701 3 95 116 20
17702 6 95 116 17
17703 4 95 116 21
17704 2 92 116 96
17705 4 92 116 115
17706 2 92 116 112
17707 4 92 116 125
17708 2 92 116 122
17709 4 92 116 11
17710 6 92 116 20
17711 3 92 116 17
17712 4 92 116 21
17713 4 96 116 115
17714 4 96 116 112
17715 2 96 116 125
17716 2 96 116 122
17717 6 96 116 11
17718 4 96 116 20
17719 4 96 116 17
17720 3 96 116 21
17721 3 115 116 112
17722 3 115 116 125
17723 6 115 116 122
17724 2 115 116 11
17725 2 115 116 20
17726 4 115 116 17
17727 4 115 116 21
17728 6 112 116 125
17729 3 112 116 122
17730 2 112 116 11
17731 4 112 116 20
17732 2 112 116 17
17733 4 112 116 21
17734 3 125 116 122
17735 4 125 116 11
17736 2 125 116 20
17737 4 125 116 17
17738 2 125 116 21
17739 4 122 116 11
17740 4 122 116 20
17741 2 122 116 17
17742 2 122 116 21
17743 2 11 116 20
17744 2 11 116 17
17745 3 11 116 21
17746 3 20 116 17
17747 2 20 116 21
17748 2 17 116 21
17749 3 92 117 112
17750 3 92 117 116
17751 3 92 117 118
17752 3 92 117 122
17753 6 92 117 17
17754 1 92 117 87
17755 1 92 117 91
17756 1 92 117 93
17757 1 92 117 97
17758 3 92 117 111
17759 3 92 117 113
17760 3 92 117 121
17761 3 92 117 123
17762 5 92 117 12
17763 5 92 117 16
17764 5 92 117 18
17765 5 92 117 22
17766 3 112 117 116
17767 3 112 117 118
17768 6 112 117 122
17769 3 112 117 17
17770 1 112 117 87
17771 3 112 117 91
17772 3 112 117 93
17773 5 112 117 97
17774 1 112 117 111
17775 1 112 117 113
17776 5 112 117 121
17777 5 112 117 123
17778 1 112 117 12
17779 3 112 117 16
17780 3 112 117 18
17781 5 112 117 22
17782 6 116 117 118
17783 3 116 117 122
17784 3 116 117 17
17785 3 116 117 87
17786 1 116 117 91
17787 5 116 117 93
17788 3 116 117 97
17789 1 116 117 111
17790 5 116 117 113
17791 1 116 117 121
17792 5 116 117 123
17793 3 116 117 12
17794 1 116 117 16
17795 5 116 117 18
17796 3 116 117 22
17797 3 118 117 122
17798 3 118 117 17
17799 3 118 117 87
17800 5 118 117 91
17801 1 118 117 93
17802 3 118 117 97
17803 5 118 117 111
17804 1 118 117 113
17805 5 118 117 121
17806 1 118 117 123
17807 3 118 117 12
17808 5 118 117 16
17809 1 118 117 18
17810 3 118 117 22
17811 3 122 117 17
17812 5 122 117 87
17813 3 122 117 91
17814 3 122 117 93
17815 1 122 117 97
17816 5 122 117 111
17817 5 122 117 113
17818 1 122 117 121
17819 1 122 117 123
17820 5 122 117 12
17821 3 122 117 16
17822 3 122 117 18
17823 1 122 117 22
17824 5 17 117 87
17825 5 17 117 91
17826 5 17 117 93
17827 5 17 117 97
17828 3 17 117 111
17829 3 17 117 113
17830 3 17 117 121
17831 3 17 117 123
17832 1 17 117 12
17833 1 17 117 16
17834 1 17 117 18
17835 1 17 117 22
17836 2 87 117 91
17837 2 87 117 93
17838 3 87 117 97
17839 2 87 117 111
17840 2 87 117 113
17841 4 87 117 121
17842 4 87 117 123
17843 3 87 117 12
17844 4 87 117 16
17845 4 87 117 18
17846 6 87 117 22
17847 3 91 117 93
17848 2 91 117 97
17849 2 91 117 111
17850 4 91 117 113
17851 2 91 117 121
17852 4 91 117 123
17853 4 91 117 12
17854 3 91 117 16
17855 6 91 117 18
17856 4 91 117 22
17857 2 93 117 97
17858 4 93 117 111
17859 2 93 117 113
17860 4 93 117 121
17861 2 93 117 123
17862 4 93 117 12
17863 6 93 117 16
17864 3 93 117 18
17865 4 93 117 22
17866 4 97 117 111
17867 4 97 117 113
17868 2 97 117 121
17869 2 97 117 123
17870 6 97 117 12
17871 4 97 117 16
17872 4 97 117 18
17873 3 97 117 22
17874 3 111 117 113
17875 3 111 117 121
17876 6 111 117 123
17877 2 111 117 12
17878 2 111 117 16
17879 4 111 117 18
17880 4 111 117 22
17881 6 113 117 121
17882 3 113 117 123
17883 2 113 117 12
17884 4 113 117 16
17885 2 113 117 18
17886 4 113 117 22
17887 3 121 117 123
17888 4 121 117 12
17889 2 121 117 16
17890 4 121 117 18
17891 2 121 117 22
17892 4 123 117 12
17893 4 123 117 16
17894 2 123 117 18
17895 2 123 117 22
17896 2 12 117 16
17897 2 12 117 18
17898 3 12 117 22
17899 3 16 117 18
17900 2 16 117 22
17901 2 18 117 22
17902 3 93 118 113
17903 3 93 118 117
17904 3 93 118 119
17905 3 93 118 123
17906 6 93 118 18
17907 1 93 118 88
17908 1 93 118 92
17909 1 93 118 94
17910 1 93 118 98
17911 3 93 118 112
17912 3 93 118 114
17913 3 93 118 122
17914 3 93 118 124
17915 5 93 118 13
17916 5 93 118 17
17917 5 93 118 19
17918 5 93 118 23
17919 3 113 118 117
17920 3 113 118 119
17921 6 113 118 123
17922 3 113 118 18
17923 1 113 118 88
17924 3 113 118 92
17925 3 113 118 94
17926 5 113 118 98
17927 1 113 118 112
17928 1 113 118 114
17929 5 113 118 122
17930 5 113 118 124
17931 1 113 118 13
17932 3 113 118 17
17933 3 113 118 19
17934 5 113 118 23
17935 6 117 118 119
17936 3 117 118 123
17937 3 117 118 18
17938 3 117 118 88
17939 1 117 118 92
17940 5 117 118 94
17941 3 117 118 98
17942 1 117 118 112
17943 5 117 118 114
17944 1 117 118 122
17945 5 117 118 124
17946 3 117 118 13
17947 1 117 118 17
17948 5 117 118 19
17949 3 117 118 23
17950 3 119 118 123
17951 3 119 118 18
17952 3 119 118 88
17953 5 119 118 92
17954 1 119 118 94
17955 3 119 118 98
17956 5 119 118 112
17957 1 119 118 114
17958 5 119 118 122
17959 1 119 118 124
17960 3 119 118 13
17961 5 119 118 17
17962 1 119 118 19
17963 3 119 118 23
17964 3 123 118 18
17965 5 123 118 88
17966 3 123 118 92
17967 3 123 118 94
17968 1 123 118 98
17969 5 123 118 112
17970 5 123 118 114
17971 1 123 118 122
17972 1 123 118 124
17973 5 123 118 13
17974 3 123 118 17
17975 3 123 118 19
17976 1 123 118 23
17977 5 18 118 88
17978 5 18 118 92
17979 5 18 118 94
17980 5 18 118 98
17981 3 18 118 112
17982 3 18 118 114
17983 3 18 118 122
17984 3 18 118 124
17985 1 18 118 13
17986 1 18 118 17
17987 1 18 118 19
17988 1 18 118 23
17989 2 88 118 92
17990 2 88 118 94
17991 3 88 118 98
17992 2 88 118 112
17993 2 88 118 114
17994 4 88 118 122
17995 4 88 118 124
17996 3 88 118 13
17997 4 88 118 17
17998 4 88 118 19
17999 6 88 118 23
18000 3 92 118 94
18001 2 92 118 98
18002 2 92 118 112
18003 4 92 118 114
18004 2 92 118 122
18005 4 92 118 124
18006 4 92 118 13
18007 3 92 118 17
18008 6 92 118 19
18009 4 92 118 23
18010 2 94 118 98
18011 4 94 118 112
18012 2 94 118 114
18013 4 94 118 122
18014 2 94 118 124
18015 4 94 118 13
18016 6 94 118 17
18017 3 94 118 19
18018 4 94 118 23
18019 4 98 118 112
18020 4 98 118 114
18021 2 98 118 122
18022 2 98 118 124
18023 6 98 118 13
18024 4 98 118 17
18025 4 98 118 19
18026 3 98 118 23
18027 3 112 118 114
18028 3 112 118 122
18029 6 112 118 124
18030 2 112 118 13
18031 2 112 118 17
18032 4 112 118 19
18033 4 112 118 23
18034 6 114 118 122
18035 3 114 118 124
18036 2 114 118 13
18037 4 114 118 17
18038 2 114 118 19
18039 4 114 118 23
18040 3 122 118 124
18041 4 122 118 13
18042 2 122 118 17
18043 4 122 118 19
18044 2 122 118 23
18045 4 124 118 13
18046 4 124 118 17
18047 2 124 118 19
18048 2 124 118 23
18049 2 13 118 17
18050 2 13 118 19
18051 3 13 118 23
18052 3 17 118 19
18053 2 17 118 23
18054 2 19 118 23
18055 3 94 119 114
18056 3 94 119 118
18057 3 94 119 120
18058 3 94 119 124
18059 6 94 119 19
18060 1 94 119 89
18061 1 94 119 93
18062 1 94 119 95
18063 1 94 119 99
18064 3 94 119 113
18065 3 94 119 115
18066 3 94 119 123
18067 3 94 119 125
18068 5 94 119 14
18069 5 94 119 18
18070 5 94 119 20
18071 5 94 119 24
18072 3 114 119 118
18073 3 114 119 120
18074 6 114 119 124
18075 3 114 119 19
18076 1 114 119 89
18077 3 114 119 93
18078 3 114 119 95
18079 5 114 119 99
18080 1 114 119 113
18081 1 114 119 115
18082 5 114 119 123
18083 5 114 119 125
18084 1 114 119 14
18085 3 114 119 18
18086 3 114 119 20
18087 5 114 119 24
18088 6 118 119 120
18089 3 118 119 124
18090 3 118 119 19
18091 3 118 119 89
18092 1 118 119 93
18093 5 118 119 95
18094 3 118 119 99
18095 1 118 119 113
18096 5 118 119 115
18097 1 118 119 123
18098 5 118 119 125
18099 3 118 119 14
18100 1 118 119 18
18101 5 118 119 20
18102 3 118 119 24
18103 3 120 119 124
18104 3 120 119 19
18105 3 120 119 89
18106 5 120 119 93
18107 1 120 119 95
18108 3 120 119 99
18109 5 120 119 113
18110 1 120 119 115
18111 5 120 119 123
18112 1 120 119 125
18113 3 120 119 14
18114 5 120 119 18
18115 1 120 119 20
18116 3 120 119 24
18117 3 124 119 19
18118 5 124 119 89
18119 3 124 119 93
18120 3 124 119 95
18121 1 124 119 99
18122 5 124 119 113
18123 5 124 119 115
18124 1 124 119 123
18125 1 124 119 125
18126 5 124 119 14
18127 3 124 119 18
18128 3 124 119 20
18129 1 124 119 24
18130 5 19 119 89
18131 5 19 119 93
18132 5 19 119 95
18133 5 19 119 99
18134 3 19 119 113
18135 3 19 119 115
18136 3 19 119 123
18137 3 19 119 125
18138 1 19 119 14
18139 1 19 119 18
18140 1 19 119 20
18141 1 19 119 24
18142 2 89 119 93
18143 2 89 119 95
18144 3 89 119 99
18145 2 89 119 113
18146 2 89 119 115
18147 4 89 119 123
18148 4 89 119 125
18149 3 89 119 14
18150 4 89 119 18
18151 4 89 119 20
18152 6 89 119 24
18153 3 93 119 95
18154 2 93 119 99
18155 2 93 119 113
18156 4 93 119 115
18157 2 93 119 123
18158 4 93 119 125
18159 4 93 119 14
18160 3 93 119 18
18161 6 93 119 20
18162 4 93 119 24
18163 2 95 119 99
18164 4 95 119 113
18165 2 95 119 115
18166 4 95 119 123
18167 2 95 119 125
18168 4 95 119 14
18169 6 95 119 18
18170 3 95 119 20
18171 4 95 119 24
18172 4 99 119 113
18173 4 99 119 115
18174 2 99 119 123
18175 2 99 119 125
18176 6 99 119 14
18177 4 99 119 18
18178 4 99 119 20
18179 3 99 119 24
18180 3 113 119 115
18181 3 113 119 123
18182 6 113 119 125
18183 2 113 119 14
18184 2 113 119 18
18185 4 113 119 20
18186 4 113 119 24
18187 6 115 119 123
18188 3 115 119 125
18189 2 115 119 14
18190 4 115 119 18
18191 2 115 119 20
18192 4 115 119 24
18193 3 123 119 125
18194 4 123 119 14
18195 2 123 119 18
18196 4 123 119 20
18197 2 123 119 24
18198 4 125 119 14
18199 4 125 119 18
18200 2 125 119 20
18201 2 125 119 24
18202 2 14 119 18
18203 2 14 119 20
18204 3 14 119 24
18205 3 18 119 20
18206 2 18 119 24
18207 2 20 119 24
18208 3 95 120 115
18209 3 95 120 119
18210 3 95 120 116
18211 3 95 120 125
18212 6 95 120 20
18213 1 95 120 90
18214 1 95 120 94
18215 1 95 120 91
18216 1 95 120 100
18217 3 95 120 114
18218 3 95 120 111
18219 3 95 120 124
18220 3 95 120 121
18221 5 95 120 15
18222 5 95 120 19
18223 5 95 120 16
18224 5 95 120 25
18225 3 115 120 119
18226 3 115 120 116
18227 6 115 120 125
18228 3 115 120 20
18229 1 115 120 90
18230 3 115 120 94
18231 3 115 120 91
18232 5 115 120 100
18233 1 115 120 114
18234 1 115 120 111
18235 5 115 120 124
18236 5 115 120 121
18237 1 115 120 15
18238 3 115 120 19
18239 3 115 120 16
18240 5 115 120 25
18241 6 119 120 116
18242 3 119 120 125
18243 3 119 120 20
18244 3 119 120 90
18245 1 119 120 94
18246 5 119 120 91
18247 3 119 120 100
18248 1 119 120 114
18249 5 119 120 111
18250 1 119 120 124
18251 5 119 120 121
18252 3 119 120 15
18253 1 119 120 19
18254 5 119 120 16
18255 3 119 120 25
18256 3 116 120 125
18257 3 116 120 20
18258 3 116 120 90
18259 5 116 120 94
18260 1 116 120 91
18261 3 116 120 100
18262 5 116 120 114
18263 1 116 120 111
18264 5 116 120 124
18265 1 116 120 121
18266 3 116 120 15
18267 5 116 120 19
18268 1 116 120 16
18269 3 116 120 25
18270 3 125 120 20
18271 5 125 120 90
18272 3 125 120 94
18273 3 125 120 91
18274 1 125 120 100
18275 5 125 120 114
18276 5 125 120 111
18277 1 125 120 124
18278 1 125 120 121
18279 5 125 120 15
18280 3 125 120 19
18281 3 125 120 16
18282 1 125 120 25
18283 5 20 120 90
18284 5 20 120 94
18285 5 20 120 91
18286 5 20 120 100
18287 3 20 120 114
18288 3 20 120 111
18289 3 20 120 124
18290 3 20 120 121
18291 1 20 120 15
18292 1 20 120 19
18293 1 20 120 16
18294 1 20 120 25
18295 2 90 120 94
18296 2 90 120 91
18297 3 90 120 100
18298 2 90 120 114
18299 2 90 120 111
18300 4 90 120 124
18301 4 90 120 121
18302 3 90 120 15
18303 4 90 120 19
18304 4 90 120 16
18305 6 90 120 25
18306 3 94 120 91
18307 2 94 120 100
18308 2 94 120 114
18309 4 94 120 111
18310 2 94 120 124
18311 4 94 120 121
18312 4 94 120 15
18313 3 94 120 19
18314 6 94 120 16
18315 4 94 120 25
18316 2 91 120 100
18317 4 91 120 114
18318 2 91 120 111
18319 4 91 120 124
18320 2 91 120 121
18321 4 91 120 15
18322 6 91 120 19
18323 3 91 120 16
18324 4 91 120 25
18325 4 100 120 114
18326 4 100 120 111
18327 2 100 120 124
18328 2 100 120 121
18329 6 100 120 15
18330 4 100 120 19
18331 4 100 120 16
18332 3 100 120 25
18333 3 114 120 111
18334 3 114 120 124
18335 6 114 120 121
18336 2 114 120 15
18337 2 114 120 19
18338 4 114 120 16
18339 4 114 120 25
18340 6 111 120 124
18341 3 111 120 121
18342 2 111 120 15
18343 4 111 120 19
18344 2 111 120 16
18345 4 111 120 25
18346 3 124 120 121
18347 4 124 120 15
18348 2 124 120 19
18349 4 124 120 16
18350 2 124 120 25
18351 4 121 120 15
18352 4 121 120 19
18353 2 121 120 16
18354 2 121 120 25
18355 2 15 120 19
18356 2 15 120 16
18357 3 15 120 25
18358 3 19 120 16
18359 2 19 120 25
18360 2 16 120 25
18361 3 96 121 116
18362 3 96 121 125
18363 3 96 121 122
18364 3 96 121 101
18365 6 96 121 21
18366 1 96 121 91
18367 1 96 121 100
18368 1 96 121 97
18369 1 96 121 76
18370 3 96 121 120
18371 3 96 121 117
18372 3 96 121 105
18373 3 96 121 102
18374 5 96 121 16
18375 5 96 121 25
18376 5 96 121 22
18377 5 96 121 1
18378 3 116 121 125
18379 3 116 121 122
18380 6 116 121 101
18381 3 116 121 21
18382 1 116 121 91
18383 3 116 121 100
18384 3 116 121 97
18385 5 116 121 76
18386 1 116 121 120
18387 1 116 121 117
18388 5 116 121 105
18389 5 116 121 102
18390 1 116 121 16
18391 3 116 121 25
18392 3 116 121 22
18393 5 116 121 1
18394 6 125 121 122
18395 3 125 121 101
18396 3 125 121 21
18397 3 125 121 91
18398 1 125 121 100
18399 5 125 121 97
18400 3 125 121 76
18401 1 125 121 120
18402 5 125 121 117
18403 1 125 121 105
18404 5 125 121 102
18405 3 125 121 16
18406 1 125 121 25
18407 5 125 121 22
18408 3 125 121 1
18409 3 122 121 101
18410 3 122 121 21
18411 3 122 121 91
18412 5 122 121 100
18413 1 122 121 97
18414 3 122 121 76
18415 5 122 121 120
18416 1 122 121 117
18417 5 122 121 105
18418 1 122 121 102
18419 3 122 121 16
18420 5 122 121 25
18421 1 122 121 22
18422 3 122 121 1
18423 3 101 121 21
18424 5 101 121 91
18425 3 101 121 100
18426 3 101 121 97
18427 1 101 121 76
18428 5 101 121 120
18429 5 101 121 117
18430 1 101 121 105
18431 1 101 121 102
18432 5 101 121 16
18433 3 101 121 25
18434 3 101 121 22
18435 1 101 121 1
18436 5 21 121 91
18437 5 21 121 100
18438 5 21 121 97
18439 5 21 121 76
18440 3 21 121 120
18441 3 21 121 117
18442 3 21 121 105
18443 3 21 121 102
18444 1 21 121 16
18445 1 21 121 25
18446 1 21 121 22
18447 1 21 121 1
18448 2 91 121 100
18449 2 91 121 97
18450 3 91 121 76
18451 2 91 121 120
18452 2 91 121 117
18453 4 91 121 105
18454 4 91 121 102
18455 3 91 121 16
18456 4 91 121 25
18457 4 91 121 22
18458 6 91 121 1
18459 3 100 121 97
18460 2 100 121 76
18461 2 100 121 120
18462 4 100 121 117
18463 2 100 121 105
18464 4 100 121 102
18465 4 100 121 16
18466 3 100 121 25
18467 6 100 121 22
18468 4 100 121 1
18469 2 97 121 76
18470 4 97 121 120
18471 2 97 121 117
18472 4 97 121 105
18473 2 97 121 102
18474 4 97 121 16
18475 6 97 121 25
18476 3 97 121 22
18477 4 97 121 1
18478 4 76 121 120
18479 4 76 121 117
18480 2 76 121 105
18481 2 76 121 102
18482 6 76 121 16
18483 4 76 121 25
18484 4 76 121 22
18485 3 76 121 1
18486 3 120 121 117
18487 3 120 121 105
18488 6 120 121 102
18489 2 120 121 16
18490 2 120 121 25
18491 4 120 121 22
18492 4 120 121 1
18493 6 117 121 105
18494 3 117 121 102
18495 2 117 121 16
18496 4 117 121 25
18497 2 117 121 22
18498 4 117 121 1
18499 3 105 121 102
18500 4 105 121 16
18501 2 105 121 25
18502 4 105 121 22
18503 2 105 121 1
18504 4 102 121 16
18505 4 102 121 25
18506 2 102 121 22
18507 2 102 121 1
18508 2 16 121 25
18509 2 16 121 22
18510 3 16 121 1
18511 3 25 121 22
18512 2 25 121 1
18513 2 22 121 1
18514 3 97 122 117
18515 3 97 122 121
18516 3 97 122 123
18517 3 97 122 102
18518 6 97 122 22
18519 1 97 122 92
18520 1 97 122 96
18521 1 97 122 98
18522 1 97 122 77
18523 3 97 122 116
18524 3 97 122 118
18525 3 97 122 101
18526 3 97 122 103
18527 5 97 122 17
18528 5 97 122 21
18529 5 97 122 23
18530 5 97 122 2
18531 3 117 122 121
18532 3 117 122 123
18533 6 117 122 102
18534 3 117 122 22
18535 1 117 122 92
18536 3 117 122 96
18537 3 117 122 98
18538 5 117 122 77
18539 1 117 122 116
18540 1 117 122 118
18541 5 117 122 101
18542 5 117 122 103
18543 1 117 122 17
18544 3 117 122 21
18545 3 117 122 23
18546 5 117 122 2
18547 6 121 122 123
18548 3 121 122 102
18549 3 121 122 22
18550 3 121 122 92
18551 1 121 122 96
18552 5 121 122 98
18553 3 121 122 77
18554 1 121 122 116
18555 5 121 122 118
18556 1 121 122 101
18557 5 121 122 103
18558 3 121 122 17
18559 1 121 122 21
18560 5 121 122 23
18561 3 121 122 2
18562 3 123 122 102
18563 3 123 122 22
18564 3 123 122 92
18565 5 123 122 96
18566 1 123 122 98
18567 3 123 122 77
18568 5 123 122 116
18569 1 123 122 118
18570 5 123 122 101
18571 1 123 122 103
18572 3 123 122 17
18573 5 123 122 21
18574 1 123 122 23
18575 3 123 122 2
18576 3 102 122 22
18577 5 102 122 92
18578 3 102 122 96
18579 3 102 122 98
18580 1 102 122 77
18581 5 102 122 116
18582 5 102 122 118
18583 1 102 122 101
18584 1 102 122 103
18585 5 102 122 17
18586 3 102 122 21
18587 3 102 122 23
18588 1 102 122 2
18589 5 22 122 92
18590 5 22 122 96
18591 5 22 122 98
18592 5 22 122 77
18593 3 22 122 116
18594 3 22 122 118
18595 3 22 122 101
18596 3 22 122 103
18597 1 22 122 17
18598 1 22 122 21
18599 1 22 122 23
18600 1 22 122 2
18601 2 92 122 96
18602 2 92 122 98
18603 3 92 122 77
18604 2 92 122 116
18605 2 92 122 118
18606 4 92 122 101
18607 4 92 122 103
18608 3 92 122 17
18609 4 92 122 21
18610 4 92 122 23
18611 6 92 122 2
18612 3 96 122 98
18613 2 96 122 77
18614 2 96 122 116
18615 4 96 122 118
18616 2 96 122 101
18617 4 96 122 103
18618 4 96 122 17
18619 3 96 122 21
18620 6 96 122 23
18621 4 96 122 2
18622 2 98 122 77
18623 4 98 122 116
18624 2 98 122 118
18625 4 98 122 101
18626 2 98 122 103
18627 4 98 122 17
18628 6 98 122 21
18629 3 98 122 23
18630 4 98 122 2
18631 4 77 122 116
18632 4 77 122 118
18633 2 77 122 101
18634 2 77 122 103
18635 6 77 122 17
18636 4 77 122 21
18637 4 77 122 23
18638 3 77 122 2
18639 3 116 122 118
18640 3 116 122 101
18641 6 116 122 103
18642 2 116 122 17
18643 2 116 122 21
18644 4 116 122 23
18645 4 116 122 2
18646 6 118 122 101
18647 3 118 122 103
18648 2 118 122 17
18649 4 118 122 21
18650 2 118 122 23
18651 4 118 122 2
18652 3 101 122 103
18653 4 101 122 17
18654 2 101 122 21
18655 4 101 122 23
18656 2 101 122 2
18657 4 103 122 17
18658 4 103 122 21
18659 2 103 122 23
18660 2 103 122 2
18661 2 17 122 21
18662 2 17 122 23
18663 3 17 122 2
18664 3 21 122 23
18665 2 21 122 2
18666 2 23 122 2
18667 3 98 123 118
18668 3 98 123 122
18669 3 98 123 124
18670 3 98 123 103
18671 6 98 123 23
18672 1 98 123 93
18673 1 98 123 97
18674 1 98 123 99
18675 1 98 123 78
18676 3 98 123 117
18677 3 98 123 119
18678 3 98 123 102
18679 3 98 123 104
18680 5 98 123 18
18681 5 98 123 22
18682 5 98 123 24
18683 5 98 123 3
18684 3 118 123 122
18685 3 118 123 124
18686 6 118 123 103
18687 3 118 123 23
18688 1 118 123 93
18689 3 118 123 97
18690 3 118 123 99
18691 5 118 123 78
18692 1 118 123 117
18693 1 118 123 119
18694 5 118 123 102
18695 5 118 123 104
18696 1 118 123 18
18697 3 118 123 22
18698 3 118 123 24
18699 5 118 123 3
18700 6 122 123 124
18701 3 122 123 103
18702 3 122 123 23
18703 3 122 123 93
18704 1 122 123 97
18705 5 122 123 99
18706 3 122 123 78
18707 1 122 123 117
18708 5 122 123 119
18709 1 122 123 102
18710 5 122 123 104
18711 3 122 123 18
18712 1 122 123 22
18713 5 122 123 24
18714 3 122 123 3
18715 3 124 123 103
18716 3 124 123 23
18717 3 124 123 93
18718 5 124 123 97
18719 1 124 123 99
18720 3 124 123 78
18721 5 124 123 117
18722 1 124 123 119
18723 5 124 123 102
18724 1 124 123 104
18725 3 124 123 18
18726 5 124 123 22
18727 1 124 123 24
18728 3 124 123 3
18729 3 103 123 23
18730 5 103 123 93
18731 3 103 123 97
18732 3 103 123 99
18733 1 103 123 78
18734 5 103 123 117
18735 5 103 123 119
18736 1 103 123 102
18737 1 103 123 104
18738 5 103 123 18
18739 3 103 123 22
18740 3 103 123 24
18741 1 103 123 3
18742 5 23 123 93
18743 5 23 123 97
18744 5 23 123 99
18745 5 23 123 78
18746 3 23 123 117
18747 3 23 123 119
18748 3 23 123 102
18749 3 23 123 104
18750 1 23 123 18
18751 1 23 123 22
18752 1 23 123 24
18753 1 23 123 3
18754 2 93 123 97
18755 2 93 123 99
18756 3 93 123 78
18757 2 93 123 117
18758 2 93 123 119
18759 4 93 123 102
18760 4 93 123 104
18761 3 93 123 18
18762 4 93 123 22
18763 4 93 123 24
18764 6 93 123 3
18765 3 97 123 99
18766 2 97 123 78
18767 2 97 123 117
18768 4 97 123 119
18769 2 97 123 102
18770 4 97 123 104
18771 4 97 123 18
18772 3 97 123 22
18773 6 97 123 24
18774 4 97 123 3
18775 2 99 123 78
18776 4 99 123 117
18777 2 99 123 119
18778 4 99 123 102
18779 2 99 123 104
18780 4 99 123 18
18781 6 99 123 22
18782 3 99 123 24
18783 4 99 123 3
18784 4 78 123 117
18785 4 78 123 119
18786 2 78 123 102
18787 2 78 123 104
18788 6 78 123 18
18789 4 78 123 22
18790 4 78 123 24
18791 3 78 123 3
18792 3 117 123 119
18793 3 117 123 102
18794 6 117 123 104
18795 2 117 123 18
18796 2 117 123 22
18797 4 117 123 24
18798 4 117 123 3
18799 6 119 123 102
18800 3 119 123 104
18801 2 119 123 18
18802 4 119 123 22
18803 2 119 123 24
18804 4 119 123 3
18805 3 102 123 104
18806 4 102 123 18
18807 2 102 123 22
18808 4 102 123 24
18809 2 102 123 3
18810 4 104 123 18
18811 4 104 123 22
18812 2 104 123 24
18813 2 104 123 3
18814 2 18 123 22
18815 2 18 123 24
18816 3 18 123 3
18817 3 22 123 24
18818 2 22 123 3
18819 2 24 123 3
18820 3 99 124 119
18821 3 99 124 123
18822 3 99 124 125
18823 3 99 124 104
18824 6 99 124 24
18825 1 99 124 94
18826 1 99 124 98
18827 1 99 124 100
18828 1 99 124 79
18829 3 99 124 118
18830 3 99 124 120
18831 3 99 124 103
18832 3 99 124 105
18833 5 99 124 19
18834 5 99 124 23
18835 5 99 124 25
18836 5 99 124 4
18837 3 119 124 123
18838 3 119 124 125
18839 6 119 124 104
18840 3 119 124 24
18841 1 119 124 94
18842 3 119 124 98
18843 3 119 124 100
18844 5 119 124 79
18845 1 119 124 118
18846 1 119 124 120
18847 5 119 124 103
18848 5 119 124 105
18849 1 119 124 19
18850 3 119 124 23
18851 3 119 124 25
18852 5 119 124 4
18853 6 123 124 125
18854 3 123 124 104
18855 3 123 124 24
18856 3 123 124 94
18857 1 123 124 98
18858 5 123 124 100
18859 3 123 124 79
18860 1 123 124 118
18861 5 123 124 120
18862 1 123 124 103
18863 5 123 124 105
18864 3 123 124 19
18865 1 123 124 23
18866 5 123 124 25
18867 3 123 124 4
18868 3 125 124 104
18869 3 125 124 24
18870 3 125 124 94
18871 5 125 124 98
18872 1 125 124 100
18873 3 125 124 79
18874 5 125 124 118
18875 1 125 124 120
18876 5 125 124 103
18877 1 125 124 105
18878 3 125 124 19
18879 5 125 124 23
18880 1 125 124 25
18881 3 125 124 4
18882 3 104 124 24
18883 5 104 124 94
18884 3 104 124 98
18885 3 104 124 100
18886 1 104 124 79
18887 5 104 124 118
18888 5 104 124 120
18889 1 104 124 103
18890 1 104 124 105
18891 5 104 124 19
18892 3 104 124 23
18893 3 104 124 25
18894 1 104 124 4
18895 5 24 124 94
18896 5 24 124 98
18897 5 24 124 100
18898 5 24 124 79
18899 3 24 124 118
18900 3 24 124 120
18901 3 24 124 103
18902 3 24 124 105
18903 1 24 124 19
18904 1 24 124 23
18905 1 24 124 25
18906 1 24 124 4
18907 2 94 124 98
18908 2 94 124 100
18909 3 94 124 79
18910 2 94 124 118
18911 2 94 124 120
18912 4 94 124 103
18913 4 94 124 105
18914 3 94 124 19
18915 4 94 124 23
18916 4 94 124 25
18917 6 94 124 4
18918 3 98 124 100
18919 2 98 124 79
18920 2 98 124 118
18921 4 98 124 120
18922 2 98 124 103
18923 4 98 124 105
18924 4 98 124 19
18925 3 98 124 23
18926 6 98 124 25
18927 4 98 124 4
18928 2 100 124 79
18929 4 100 124 118
18930 2 100 124 120
18931 4 100 124 103
18932 2 100 124 105
18933 4 100 124 19
18934 6 100 124 23
18935 3 100 124 25
18936 4 100 124 4
18937 4 79 124 118
18938 4 79 124 120
18939 2 79 124 103
18940 2 79 124 105
18941 6 79 124 19
18942 4 79 124 23
18943 4 79 124 25
18944 3 79 124 4
18945 3 118 124 120
18946 3 118 124 103
18947 6 118 124 105
18948 2 118 124 19
18949 2 118 124 23
18950 4 118 124 25
18951 4 118 124 4
18952 6 120 124 103
18953 3 120 124 105
18954 2 120 124 19
18955 4 120 124 23
18956 2 120 124 25
18957 4 120 124 4
18958 3 103 124 105
18959 4 103 124 19
18960 2 103 124 23
18961 4 103 124 25
18962 2 103 124 4
18963 4 105 124 19
18964 4 105 124 23
18965 2 105 124 25
18966 2 105 124 4
18967 2 19 124 23
18968 2 19 124 25
18969 3 19 124 4
18970 3 23 124 25
18971 2 23 124 4
18972 2 25 124 4
18973 3 100 125 120
18974 3 100 125 124
18975 3 100 125 121
18976 3 100 125 105
18977 6 100 125 25
18978 1 100 125 95
18979 1 100 125 99
18980 1 100 125 96
18981 1 100 125 80
18982 3 100 125 119
18983 3 100 125 116
18984 3 100 125 104
18985 3 100 125 101
18986 5 100 125 20
18987 5 100 125 24
18988 5 100 125 21
18989 5 100 125 5
18990 3 120 125 124
18991 3 120 125 121
18992 6 120 125 105
18993 3 120 125 25
18994 1 120 125 95
18995 3 120 125 99
18996 3 120 125 96
18997 5 120 125 80
18998 1 120 125 119
18999 1 120 125 116
19000 5 120 125 104
19001 5 120 125 101
19002 1 120 125 20
19003 3 120 125 24
19004 3 120 125 21
19005 5 120 125 5
19006 6 124 125 121
19007 3 124 125 105
19008 3 124 125 25
19009 3 124 125 95
19010 1 124 125 99
19011 5 124 125 96
19012 3 124 125 80
19013 1 124 125 119
19014 5 124 125 116
19015 1 124 125 104
19016 5 124 125 101
19017 3 124 125 20
19018 1 124 125 24
19019 5 124 125 21
19020 3 124 125 5
19021 3 121 125 105
19022 3 121 125 25
19023 3 121 125 95
19024 5 121 125 99
19025 1 121 125 96
19026 3 121 125 80
19027 5 121 125 119
19028 1 121 125 116
19029 5 121 125 104
19030 1 121 125 101
19031 3 121 125 20
19032 5 121 125 24
19033 1 121 125 21
19034 3 121 125 5
19035 3 105 125 25
19036 5 105 125 95
19037 3 105 125 99
19038 3 105 125 96
19039 1 105 125 80
19040 5 105 125 119
19041 5 105 125 116
19042 1 105 125 104
19043 1 105 125 101
19044 5 105 125 20
19045 3 105 125 24
19046 3 105 125 21
19047 1 105 125 5
19048 5 25 125 95
19049 5 25 125 99
19050 5 25 125 96
19051 5 25 125 80
19052 3 25 125 119
19053 3 25 125 116
19054 3 25 125 104
19055 3 25 125 101
19056 1 25 125 20
19057 1 25 125 24
19058 1 25 125 21
19059 1 25 125 5
19060 2 95 125 99
19061 2 95 125 96
19062 3 95 125 80
19063 2 95 125 119
19064 2 95 125 116
19065 4 95 125 104
19066 4 95 125 101
19067 3 95 125 20
19068 4 95 125 24
19069 4 95 125 21
19070 6 95 125 5
19071 3 99 125 96
19072 2 99 125 80
19073 2 99 125 119
19074 4 99 125 116
19075 2 99 125 104
19076 4 99 125 101
19077 4 99 125 20
19078 3 99 125 24
19079 6 99 125 21
19080 4 99 125 5
19081 2 96 125 80
19082 4 96 125 119
19083 2 96 125 116
19084 4 96 125 104
19085 2 96 125 101
19086 4 96 125 20
19087 6 96 125 24
19088 3 96 125 21
19089 4 96 125 5
19090 4 80 125 119
19091 4 80 125 116
19092 2 80 125 104
19093 2 80 125 101
19094 6 80 125 20
19095 4 80 125 24
19096 4 80 125 21
19097 3 80 125 5
19098 3 119 125 116
19099 3 119 125 104
19100 6 119 125 101
19101 2 119 125 20
19102 2 119 125 24
19103 4 119 125 21
19104 4 119 125 5
19105 6 116 125 104
19106 3 116 125 101
19107 2 116 125 20
19108 4 116 125 24
19109 2 116 125 21
19110 4 116 125 5
19111 3 104 125 101
19112 4 104 125 20
19113 2 104 125 24
19114 4 104 125 21
19115 2 104 125 5
19116 4 101 125 20
19117 4 101 125 24
19118 2 101 125 21
19119 2 101 125 5
19120 2 20 125 24
19121 2 20 125 21
19122 3 20 125 5
19123 3 24 125 21
19124 2 24 125 5
19125 2 21 125 5
