LAMMPS data file for FCC lattice

500 atoms
33000 angles

1 atom types
4 angle types

0.0 7.07107 xlo xhi
0.0 7.07107 ylo yhi
0.0 7.07107 zlo zhi

Masses

1 1.0

Atoms

1 1 0 0 0 1
2 1 0.707107 0.707107 0 1
3 1 0.707107 0 0.707107 1
4 1 0 0.707107 0.707107 1
5 1 0 0 1.41421 1
6 1 0.707107 0.707107 1.41421 1
7 1 0.707107 0 2.12132 1
8 1 0 0.707107 2.12132 1
9 1 0 0 2.82843 1
10 1 0.707107 0.707107 2.82843 1
11 1 0.707107 0 3.53553 1
12 1 0 0.707107 3.53553 1
13 1 0 0 4.24264 1
14 1 0.707107 0.707107 4.24264 1
15 1 0.707107 0 4.94975 1
16 1 0 0.707107 4.94975 1
17 1 0 0 5.65685 1
18 1 0.707107 0.707107 5.65685 1
19 1 0.707107 0 6.36396 1
20 1 0 0.707107 6.36396 1
21 1 0 1.41421 0 1
22 1 0.707107 2.12132 0 1
23 1 0.707107 1.41421 0.707107 1
24 1 0 2.12132 0.707107 1
25 1 0 1.41421 1.41421 1
26 1 0.707107 2.12132 1.41421 1
27 1 0.707107 1.41421 2.12132 1
28 1 0 2.12132 2.12132 1
29 1 0 1.41421 2.82843 1
30 1 0.707107 2.12132 2.82843 1
31 1 0.707107 1.41421 3.53553 1
32 1 0 2.12132 3.53553 1
33 1 0 1.41421 4.24264 1
34 1 0.707107 2.12132 4.24264 1
35 1 0.707107 1.41421 4.94975 1
36 1 0 2.12132 4.94975 1
37 1 0 1.41421 5.65685 1
38 1 0.707107 2.12132 5.65685 1
39 1 0.707107 1.41421 6.36396 1
40 1 0 2.12132 6.36396 1
41 1 0 2.82843 0 1
42 1 0.707107 3.53553 0 1
43 1 0.707107 2.82843 0.707107 1
44 1 0 3.53553 0.707107 1
45 1 0 2.82843 1.41421 1
46 1 0.707107 3.53553 1.41421 1
47 1 0.707107 2.82843 2.12132 1
48 1 0 3.53553 2.12132 1
49 1 0 2.82843 2.82843 1
50 1 0.707107 3.53553 2.82843 1
51 1 0.707107 2.82843 3.53553 1
52 1 0 3.53553 3.53553 1
53 1 0 2.82843 4.24264 1
54 1 0.707107 3.53553 4.24264 1
55 1 0.707107 2.82843 4.94975 1
56 1 0 3.53553 4.94975 1
57 1 0 2.82843 5.65685 1
58 1 0.707107 3.53553 5.65685 1
59 1 0.707107 2.82843 6.36396 1
60 1 0 3.53553 6.36396 1
61 1 0 4.24264 0 1
62 1 0.707107 4.94975 0 1
63 1 0.707107 4.24264 0.707107 1
64 1 0 4.94975 0.707107 1
65 1 0 4.24264 1.41421 1
66 1 0.707107 4.94975 1.41421 1
67 1 0.707107 4.24264 2.12132 1
68 1 0 4.94975 2.12132 1
69 1 0 4.24264 2.82843 1
70 1 0.707107 4.94975 2.82843 1
71 1 0.707107 4.24264 3.53553 1
72 1 0 4.94975 3.53553 1
73 1 0 4.24264 4.24264 1
74 1 0.707107 4.94975 4.24264 1
75 1 0.707107 4.24264 4.94975 1
76 1 0 4.94975 4.94975 1
77 1 0 4.24264 5.65685 1
78 1 0.707107 4.94975 5.65685 1
79 1 0.707107 4.24264 6.36396 1
80 1 0 4.94975 6.36396 1
81 1 0 5.65685 0 1
82 1 0.707107 6.36396 0 1
83 1 0.707107 5.65685 0.707107 1
84 1 0 6.36396 0.707107 1
85 1 0 5.65685 1.41421 1
86 1 0.707107 6.36396 1.41421 1
87 1 0.707107 5.65685 2.12132 1
88 1 0 6.36396 2.12132 1
89 1 0 5.65685 2.82843 1
90 1 0.707107 6.36396 2.82843 1
91 1 0.707107 5.65685 3.53553 1
92 1 0 6.36396 3.53553 1
93 1 0 5.65685 4.24264 1
94 1 0.707107 6.36396 4.24264 1
95 1 0.707107 5.65685 4.94975 1
96 1 0 6.36396 4.94975 1
97 1 0 5.65685 5.65685 1
98 1 0.707107 6.36396 5.65685 1
99 1 0.707107 5.65685 6.36396 1
100 1 0 6.36396 6.36396 1
101 1 1.41421 0 0 1
102 1 2.12132 0.707107 0 1
103 1 2.12132 0 0.707107 1
104 1 1.41421 0.707107 0.707107 1
105 1 1.41421 0 1.41421 1
106 1 2.12132 0.707107 1.41421 1
107 1 2.12132 0 2.12132 1
108 1 1.41421 0.707107 2.12132 1
109 1 1.41421 0 2.82843 1
110 1 2.12132 0.707107 2.82843 1
111 1 2.12132 0 3.53553 1
112 1 1.41421 0.707107 3.53553 1
113 1 1.41421 0 4.24264 1
114 1 2.12132 0.707107 4.24264 1
115 1 2.12132 0 4.94975 1
116 1 1.41421 0.707107 4.94975 1
117 1 1.41421 0 5.65685 1
118 1 2.12132 0.707107 5.65685 1
119 1 2.12132 0 6.36396 1
120 1 1.41421 0.707107 6.36396 1
121 1 1.41421 1.41421 0 1
122 1 2.12132 2.12132 0 1
123 1 2.12132 1.41421 0.707107 1
124 1 1.41421 2.12132 0.707107 1
125 1 1.41421 1.41421 1.41421 1
126 1 2.12132 2.12132 1.41421 1
127 1 2.12132 1.41421 2.12132 1
128 1 1.41421 2.12132 2.12132 1
129 1 1.41421 1.41421 2.82843 1
130 1 2.12132 2.12132 2.82843 1
131 1 2.12132 1.41421 3.53553 1
132 1 1.41421 2.12132 3.53553 1
133 1 1.41421 1.41421 4.24264 1
134 1 2.12132 2.12132 4.24264 1
135 1 2.12132 1.41421 4.94975 1
136 1 1.41421 2.12132 4.94975 1
137 1 1.41421 1.41421 5.65685 1
138 1 2.12132 2.12132 5.65685 1
139 1 2.12132 1.41421 6.36396 1
140 1 1.41421 2.12132 6.36396 1
141 1 1.41421 2.82843 0 1
142 1 2.12132 3.53553 0 1
143 1 2.12132 2.82843 0.707107 1
144 1 1.41421 3.53553 0.707107 1
145 1 1.41421 2.82843 1.41421 1
146 1 2.12132 3.53553 1.41421 1
147 1 2.12132 2.82843 2.12132 1
148 1 1.41421 3.53553 2.12132 1
149 1 1.41421 2.82843 2.82843 1
150 1 2.12132 3.53553 2.82843 1
151 1 2.12132 2.82843 3.53553 1
152 1 1.41421 3.53553 3.53553 1
153 1 1.41421 2.82843 4.24264 1
154 1 2.12132 3.53553 4.24264 1
155 1 2.12132 2.82843 4.94975 1
156 1 1.41421 3.53553 4.94975 1
157 1 1.41421 2.82843 5.65685 1
158 1 2.12132 3.53553 5.65685 1
159 1 2.12132 2.82843 6.36396 1
160 1 1.41421 3.53553 6.36396 1
161 1 1.41421 4.24264 0 1
162 1 2.12132 4.94975 0 1
163 1 2.12132 4.24264 0.707107 1
164 1 1.41421 4.94975 0.707107 1
165 1 1.41421 4.24264 1.41421 1
166 1 2.12132 4.94975 1.41421 1
167 1 2.12132 4.24264 2.12132 1
168 1 1.41421 4.94975 2.12132 1
169 1 1.41421 4.24264 2.82843 1
170 1 2.12132 4.94975 2.82843 1
171 1 2.12132 4.24264 3.53553 1
172 1 1.41421 4.94975 3.53553 1
173 1 1.41421 4.24264 4.24264 1
174 1 2.12132 4.94975 4.24264 1
175 1 2.12132 4.24264 4.94975 1
176 1 1.41421 4.94975 4.94975 1
177 1 1.41421 4.24264 5.65685 1
178 1 2.12132 4.94975 5.65685 1
179 1 2.12132 4.24264 6.36396 1
180 1 1.41421 4.94975 6.36396 1
181 1 1.41421 5.65685 0 1
182 1 2.12132 6.36396 0 1
183 1 2.12132 5.65685 0.707107 1
184 1 1.41421 6.36396 0.707107 1
185 1 1.41421 5.65685 1.41421 1
186 1 2.12132 6.36396 1.41421 1
187 1 2.12132 5.65685 2.12132 1
188 1 1.41421 6.36396 2.12132 1
189 1 1.41421 5.65685 2.82843 1
190 1 2.12132 6.36396 2.82843 1
191 1 2.12132 5.65685 3.53553 1
192 1 1.41421 6.36396 3.53553 1
193 1 1.41421 5.65685 4.24264 1
194 1 2.12132 6.36396 4.24264 1
195 1 2.12132 5.65685 4.94975 1
196 1 1.41421 6.36396 4.94975 1
197 1 1.41421 5.65685 5.65685 1
198 1 2.12132 6.36396 5.65685 1
199 1 2.12132 5.65685 6.36396 1
200 1 1.41421 6.36396 6.36396 1
201 1 2.82843 0 0 1
202 1 3.53553 0.707107 0 1
203 1 3.53553 0 0.707107 1
204 1 2.82843 0.707107 0.707107 1
205 1 2.82843 0 1.41421 1
206 1 3.53553 0.707107 1.41421 1
207 1 3.53553 0 2.12132 1
208 1 2.82843 0.707107 2.12132 1
209 1 2.82843 0 2.82843 1
210 1 3.53553 0.707107 2.82843 1
211 1 3.53553 0 3.53553 1
212 1 2.82843 0.707107 3.53553 1
213 1 2.82843 0 4.24264 1
214 1 3.53553 0.707107 4.24264 1
215 1 3.53553 0 4.94975 1
216 1 2.82843 0.707107 4.94975 1
217 1 2.82843 0 5.65685 1
218 1 3.53553 0.707107 5.65685 1
219 1 3.53553 0 6.36396 1
220 1 2.82843 0.707107 6.36396 1
221 1 2.82843 1.41421 0 1
222 1 3.53553 2.12132 0 1
223 1 3.53553 1.41421 0.707107 1
224 1 2.82843 2.12132 0.707107 1
225 1 2.82843 1.41421 1.41421 1
226 1 3.53553 2.12132 1.41421 1
227 1 3.53553 1.41421 2.12132 1
228 1 2.82843 2.12132 2.12132 1
229 1 2.82843 1.41421 2.82843 1
230 1 3.53553 2.12132 2.82843 1
231 1 3.53553 1.41421 3.53553 1
232 1 2.82843 2.12132 3.53553 1
233 1 2.82843 1.41421 4.24264 1
234 1 3.53553 2.12132 4.24264 1
235 1 3.53553 1.41421 4.94975 1
236 1 2.82843 2.12132 4.94975 1
237 1 2.82843 1.41421 5.65685 1
238 1 3.53553 2.12132 5.65685 1
239 1 3.53553 1.41421 6.36396 1
240 1 2.82843 2.12132 6.36396 1
241 1 2.82843 2.82843 0 1
242 1 3.53553 3.53553 0 1
243 1 3.53553 2.82843 0.707107 1
244 1 2.82843 3.53553 0.707107 1
245 1 2.82843 2.82843 1.41421 1
246 1 3.53553 3.53553 1.41421 1
247 1 3.53553 2.82843 2.12132 1
248 1 2.82843 3.53553 2.12132 1
249 1 2.82843 2.82843 2.82843 1
250 1 3.53553 3.53553 2.82843 1
251 1 3.53553 2.82843 3.53553 1
252 1 2.82843 3.53553 3.53553 1
253 1 2.82843 2.82843 4.24264 1
254 1 3.53553 3.53553 4.24264 1
255 1 3.53553 2.82843 4.94975 1
256 1 2.82843 3.53553 4.94975 1
257 1 2.82843 2.82843 5.65685 1
258 1 3.53553 3.53553 5.65685 1
259 1 3.53553 2.82843 6.36396 1
260 1 2.82843 3.53553 6.36396 1
261 1 2.82843 4.24264 0 1
262 1 3.53553 4.94975 0 1
263 1 3.53553 4.24264 0.707107 1
264 1 2.82843 4.94975 0.707107 1
265 1 2.82843 4.24264 1.41421 1
266 1 3.53553 4.94975 1.41421 1
267 1 3.53553 4.24264 2.12132 1
268 1 2.82843 4.94975 2.12132 1
269 1 2.82843 4.24264 2.82843 1
270 1 3.53553 4.94975 2.82843 1
271 1 3.53553 4.24264 3.53553 1
272 1 2.82843 4.94975 3.53553 1
273 1 2.82843 4.24264 4.24264 1
274 1 3.53553 4.94975 4.24264 1
275 1 3.53553 4.24264 4.94975 1
276 1 2.82843 4.94975 4.94975 1
277 1 2.82843 4.24264 5.65685 1
278 1 3.53553 4.94975 5.65685 1
279 1 3.53553 4.24264 6.36396 1
280 1 2.82843 4.94975 6.36396 1
281 1 2.82843 5.65685 0 1
282 1 3.53553 6.36396 0 1
283 1 3.53553 5.65685 0.707107 1
284 1 2.82843 6.36396 0.707107 1
285 1 2.82843 5.65685 1.41421 1
286 1 3.53553 6.36396 1.41421 1
287 1 3.53553 5.65685 2.12132 1
288 1 2.82843 6.36396 2.12132 1
289 1 2.82843 5.65685 2.82843 1
290 1 3.53553 6.36396 2.82843 1
291 1 3.53553 5.65685 3.53553 1
292 1 2.82843 6.36396 3.53553 1
293 1 2.82843 5.65685 4.24264 1
294 1 3.53553 6.36396 4.24264 1
295 1 3.53553 5.65685 4.94975 1
296 1 2.82843 6.36396 4.94975 1
297 1 2.82843 5.65685 5.65685 1
298 1 3.53553 6.36396 5.65685 1
299 1 3.53553 5.65685 6.36396 1
300 1 2.82843 6.36396 6.36396 1
301 1 4.24264 0 0 1
302 1 4.94975 0.707107 0 1
303 1 4.94975 0 0.707107 1
304 1 4.24264 0.707107 0.707107 1
305 1 4.24264 0 1.41421 1
306 1 4.94975 0.707107 1.41421 1
307 1 4.94975 0 2.12132 1
308 1 4.24264 0.707107 2.12132 1
309 1 4.24264 0 2.82843 1
310 1 4.94975 0.707107 2.82843 1
311 1 4.94975 0 3.53553 1
312 1 4.24264 0.707107 3.53553 1
313 1 4.24264 0 4.24264 1
314 1 4.94975 0.707107 4.24264 1
315 1 4.94975 0 4.94975 1
316 1 4.24264 0.707107 4.94975 1
317 1 4.24264 0 5.65685 1
318 1 4.94975 0.707107 5.65685 1
319 1 4.94975 0 6.36396 1
320 1 4.24264 0.707107 6.36396 1
321 1 4.24264 1.41421 0 1
322 1 4.94975 2.12132 0 1
323 1 4.94975 1.41421 0.707107 1
324 1 4.24264 2.12132 0.707107 1
325 1 4.24264 1.41421 1.41421 1
326 1 4.94975 2.12132 1.41421 1
327 1 4.94975 1.41421 2.12132 1
328 1 4.24264 2.12132 2.12132 1
329 1 4.24264 1.41421 2.82843 1
330 1 4.94975 2.12132 2.82843 1
331 1 4.94975 1.41421 3.53553 1
332 1 4.24264 2.12132 3.53553 1
333 1 4.24264 1.41421 4.24264 1
334 1 4.94975 2.12132 4.24264 1
335 1 4.94975 1.41421 4.94975 1
336 1 4.24264 2.12132 4.94975 1
337 1 4.24264 1.41421 5.65685 1
338 1 4.94975 2.12132 5.65685 1
339 1 4.94975 1.41421 6.36396 1
340 1 4.24264 2.12132 6.36396 1
341 1 4.24264 2.82843 0 1
342 1 4.94975 3.53553 0 1
343 1 4.94975 2.82843 0.707107 1
344 1 4.24264 3.53553 0.707107 1
345 1 4.24264 2.82843 1.41421 1
346 1 4.94975 3.53553 1.41421 1
347 1 4.94975 2.82843 2.12132 1
348 1 4.24264 3.53553 2.12132 1
349 1 4.24264 2.82843 2.82843 1
350 1 4.94975 3.53553 2.82843 1
351 1 4.94975 2.82843 3.53553 1
352 1 4.24264 3.53553 3.53553 1
353 1 4.24264 2.82843 4.24264 1
354 1 4.94975 3.53553 4.24264 1
355 1 4.94975 2.82843 4.94975 1
356 1 4.24264 3.53553 4.94975 1
357 1 4.24264 2.82843 5.65685 1
358 1 4.94975 3.53553 5.65685 1
359 1 4.94975 2.82843 6.36396 1
360 1 4.24264 3.53553 6.36396 1
361 1 4.24264 4.24264 0 1
362 1 4.94975 4.94975 0 1
363 1 4.94975 4.24264 0.707107 1
364 1 4.24264 4.94975 0.707107 1
365 1 4.24264 4.24264 1.41421 1
366 1 4.94975 4.94975 1.41421 1
367 1 4.94975 4.24264 2.12132 1
368 1 4.24264 4.94975 2.12132 1
369 1 4.24264 4.24264 2.82843 1
370 1 4.94975 4.94975 2.82843 1
371 1 4.94975 4.24264 3.53553 1
372 1 4.24264 4.94975 3.53553 1
373 1 4.24264 4.24264 4.24264 1
374 1 4.94975 4.94975 4.24264 1
375 1 4.94975 4.24264 4.94975 1
376 1 4.24264 4.94975 4.94975 1
377 1 4.24264 4.24264 5.65685 1
378 1 4.94975 4.94975 5.65685 1
379 1 4.94975 4.24264 6.36396 1
380 1 4.24264 4.94975 6.36396 1
381 1 4.24264 5.65685 0 1
382 1 4.94975 6.36396 0 1
383 1 4.94975 5.65685 0.707107 1
384 1 4.24264 6.36396 0.707107 1
385 1 4.24264 5.65685 1.41421 1
386 1 4.94975 6.36396 1.41421 1
387 1 4.94975 5.65685 2.12132 1
388 1 4.24264 6.36396 2.12132 1
389 1 4.24264 5.65685 2.82843 1
390 1 4.94975 6.36396 2.82843 1
391 1 4.94975 5.65685 3.53553 1
392 1 4.24264 6.36396 3.53553 1
393 1 4.24264 5.65685 4.24264 1
394 1 4.94975 6.36396 4.24264 1
395 1 4.94975 5.65685 4.94975 1
396 1 4.24264 6.36396 4.94975 1
397 1 4.24264 5.65685 5.65685 1
398 1 4.94975 6.36396 5.65685 1
399 1 4.94975 5.65685 6.36396 1
400 1 4.24264 6.36396 6.36396 1
401 1 5.65685 0 0 1
402 1 6.36396 0.707107 0 1
403 1 6.36396 0 0.707107 1
404 1 5.65685 0.707107 0.707107 1
405 1 5.65685 0 1.41421 1
406 1 6.36396 0.707107 1.41421 1
407 1 6.36396 0 2.12132 1
408 1 5.65685 0.707107 2.12132 1
409 1 5.65685 0 2.82843 1
410 1 6.36396 0.707107 2.82843 1
411 1 6.36396 0 3.53553 1
412 1 5.65685 0.707107 3.53553 1
413 1 5.65685 0 4.24264 1
414 1 6.36396 0.707107 4.24264 1
415 1 6.36396 0 4.94975 1
416 1 5.65685 0.707107 4.94975 1
417 1 5.65685 0 5.65685 1
418 1 6.36396 0.707107 5.65685 1
419 1 6.36396 0 6.36396 1
420 1 5.65685 0.707107 6.36396 1
421 1 5.65685 1.41421 0 1
422 1 6.36396 2.12132 0 1
423 1 6.36396 1.41421 0.707107 1
424 1 5.65685 2.12132 0.707107 1
425 1 5.65685 1.41421 1.41421 1
426 1 6.36396 2.12132 1.41421 1
427 1 6.36396 1.41421 2.12132 1
428 1 5.65685 2.12132 2.12132 1
429 1 5.65685 1.41421 2.82843 1
430 1 6.36396 2.12132 2.82843 1
431 1 6.36396 1.41421 3.53553 1
432 1 5.65685 2.12132 3.53553 1
433 1 5.65685 1.41421 4.24264 1
434 1 6.36396 2.12132 4.24264 1
435 1 6.36396 1.41421 4.94975 1
436 1 5.65685 2.12132 4.94975 1
437 1 5.65685 1.41421 5.65685 1
438 1 6.36396 2.12132 5.65685 1
439 1 6.36396 1.41421 6.36396 1
440 1 5.65685 2.12132 6.36396 1
441 1 5.65685 2.82843 0 1
442 1 6.36396 3.53553 0 1
443 1 6.36396 2.82843 0.707107 1
444 1 5.65685 3.53553 0.707107 1
445 1 5.65685 2.82843 1.41421 1
446 1 6.36396 3.53553 1.41421 1
447 1 6.36396 2.82843 2.12132 1
448 1 5.65685 3.53553 2.12132 1
449 1 5.65685 2.82843 2.82843 1
450 1 6.36396 3.53553 2.82843 1
451 1 6.36396 2.82843 3.53553 1
452 1 5.65685 3.53553 3.53553 1
453 1 5.65685 2.82843 4.24264 1
454 1 6.36396 3.53553 4.24264 1
455 1 6.36396 2.82843 4.94975 1
456 1 5.65685 3.53553 4.94975 1
457 1 5.65685 2.82843 5.65685 1
458 1 6.36396 3.53553 5.65685 1
459 1 6.36396 2.82843 6.36396 1
460 1 5.65685 3.53553 6.36396 1
461 1 5.65685 4.24264 0 1
462 1 6.36396 4.94975 0 1
463 1 6.36396 4.24264 0.707107 1
464 1 5.65685 4.94975 0.707107 1
465 1 5.65685 4.24264 1.41421 1
466 1 6.36396 4.94975 1.41421 1
467 1 6.36396 4.24264 2.12132 1
468 1 5.65685 4.94975 2.12132 1
469 1 5.65685 4.24264 2.82843 1
470 1 6.36396 4.94975 2.82843 1
471 1 6.36396 4.24264 3.53553 1
472 1 5.65685 4.94975 3.53553 1
473 1 5.65685 4.24264 4.24264 1
474 1 6.36396 4.94975 4.24264 1
475 1 6.36396 4.24264 4.94975 1
476 1 5.65685 4.94975 4.94975 1
477 1 5.65685 4.24264 5.65685 1
478 1 6.36396 4.94975 5.65685 1
479 1 6.36396 4.24264 6.36396 1
480 1 5.65685 4.94975 6.36396 1
481 1 5.65685 5.65685 0 1
482 1 6.36396 6.36396 0 1
483 1 6.36396 5.65685 0.707107 1
484 1 5.65685 6.36396 0.707107 1
485 1 5.65685 5.65685 1.41421 1
486 1 6.36396 6.36396 1.41421 1
487 1 6.36396 5.65685 2.12132 1
488 1 5.65685 6.36396 2.12132 1
489 1 5.65685 5.65685 2.82843 1
490 1 6.36396 6.36396 2.82843 1
491 1 6.36396 5.65685 3.53553 1
492 1 5.65685 6.36396 3.53553 1
493 1 5.65685 5.65685 4.24264 1
494 1 6.36396 6.36396 4.24264 1
495 1 6.36396 5.65685 4.94975 1
496 1 5.65685 6.36396 4.94975 1
497 1 5.65685 5.65685 5.65685 1
498 1 6.36396 6.36396 5.65685 1
499 1 6.36396 5.65685 6.36396 1
500 1 5.65685 6.36396 6.36396 1

Angles

1 1 482 1 419
2 2 482 1 402
3 1 482 1 403
4 1 482 1 100
5 2 482 1 82
6 1 482 1 84
7 3 482 1 19
8 3 482 1 20
9 4 482 1 2
10 3 482 1 3
11 3 482 1 4
12 1 419 1 402
13 2 419 1 403
14 1 419 1 100
15 3 419 1 82
16 3 419 1 84
17 2 419 1 19
18 1 419 1 20
19 3 419 1 2
20 4 419 1 3
21 3 419 1 4
22 1 402 1 403
23 3 402 1 100
24 4 402 1 82
25 3 402 1 84
26 3 402 1 19
27 1 402 1 20
28 2 402 1 2
29 3 402 1 3
30 1 402 1 4
31 3 403 1 100
32 3 403 1 82
33 1 403 1 84
34 4 403 1 19
35 3 403 1 20
36 3 403 1 2
37 2 403 1 3
38 1 403 1 4
39 1 100 1 82
40 2 100 1 84
41 1 100 1 19
42 2 100 1 20
43 3 100 1 2
44 3 100 1 3
45 4 100 1 4
46 1 82 1 84
47 1 82 1 19
48 3 82 1 20
49 2 82 1 2
50 1 82 1 3
51 3 82 1 4
52 3 84 1 19
53 4 84 1 20
54 3 84 1 2
55 1 84 1 3
56 2 84 1 4
57 1 19 1 20
58 1 19 1 2
59 2 19 1 3
60 3 19 1 4
61 1 20 1 2
62 3 20 1 3
63 2 20 1 4
64 1 2 1 3
65 1 2 1 4
66 1 3 1 4
67 1 19 2 20
68 1 19 2 1
69 2 19 2 3
70 3 19 2 4
71 2 19 2 39
72 3 19 2 21
73 4 19 2 23
74 1 19 2 120
75 1 19 2 101
76 3 19 2 104
77 3 19 2 121
78 1 20 2 1
79 3 20 2 3
80 2 20 2 4
81 1 20 2 39
82 1 20 2 21
83 3 20 2 23
84 2 20 2 120
85 3 20 2 101
86 4 20 2 104
87 3 20 2 121
88 1 1 2 3
89 1 1 2 4
90 3 1 2 39
91 2 1 2 21
92 3 1 2 23
93 3 1 2 120
94 2 1 2 101
95 3 1 2 104
96 4 1 2 121
97 1 3 2 4
98 4 3 2 39
99 3 3 2 21
100 2 3 2 23
101 3 3 2 120
102 1 3 2 101
103 1 3 2 104
104 3 3 2 121
105 3 4 2 39
106 1 4 2 21
107 1 4 2 23
108 4 4 2 120
109 3 4 2 101
110 2 4 2 104
111 3 4 2 121
112 1 39 2 21
113 2 39 2 23
114 1 39 2 120
115 3 39 2 101
116 3 39 2 104
117 1 39 2 121
118 1 21 2 23
119 3 21 2 120
120 4 21 2 101
121 3 21 2 104
122 2 21 2 121
123 3 23 2 120
124 3 23 2 101
125 1 23 2 104
126 1 23 2 121
127 1 120 2 101
128 2 120 2 104
129 1 120 2 121
130 1 101 2 104
131 2 101 2 121
132 1 104 2 121
133 1 82 3 84
134 2 82 3 86
135 1 82 3 1
136 2 82 3 2
137 3 82 3 4
138 3 82 3 5
139 4 82 3 6
140 1 82 3 184
141 1 82 3 101
142 3 82 3 104
143 3 82 3 105
144 1 84 3 86
145 1 84 3 1
146 3 84 3 2
147 2 84 3 4
148 1 84 3 5
149 3 84 3 6
150 2 84 3 184
151 3 84 3 101
152 4 84 3 104
153 3 84 3 105
154 3 86 3 1
155 4 86 3 2
156 3 86 3 4
157 1 86 3 5
158 2 86 3 6
159 1 86 3 184
160 3 86 3 101
161 3 86 3 104
162 1 86 3 105
163 1 1 3 2
164 1 1 3 4
165 2 1 3 5
166 3 1 3 6
167 3 1 3 184
168 2 1 3 101
169 3 1 3 104
170 4 1 3 105
171 1 2 3 4
172 3 2 3 5
173 2 2 3 6
174 3 2 3 184
175 1 2 3 101
176 1 2 3 104
177 3 2 3 105
178 1 4 3 5
179 1 4 3 6
180 4 4 3 184
181 3 4 3 101
182 2 4 3 104
183 3 4 3 105
184 1 5 3 6
185 3 5 3 184
186 4 5 3 101
187 3 5 3 104
188 2 5 3 105
189 3 6 3 184
190 3 6 3 101
191 1 6 3 104
192 1 6 3 105
193 1 184 3 101
194 2 184 3 104
195 1 184 3 105
196 1 101 3 104
197 2 101 3 105
198 1 104 3 105
199 1 402 4 403
200 2 402 4 406
201 1 402 4 423
202 1 402 4 1
203 2 402 4 2
204 3 402 4 3
205 3 402 4 5
206 4 402 4 6
207 1 402 4 21
208 3 402 4 23
209 3 402 4 25
210 1 403 4 406
211 2 403 4 423
212 1 403 4 1
213 3 403 4 2
214 2 403 4 3
215 1 403 4 5
216 3 403 4 6
217 3 403 4 21
218 4 403 4 23
219 3 403 4 25
220 1 406 4 423
221 3 406 4 1
222 4 406 4 2
223 3 406 4 3
224 1 406 4 5
225 2 406 4 6
226 3 406 4 21
227 3 406 4 23
228 1 406 4 25
229 3 423 4 1
230 3 423 4 2
231 4 423 4 3
232 3 423 4 5
233 3 423 4 6
234 1 423 4 21
235 2 423 4 23
236 1 423 4 25
237 1 1 4 2
238 1 1 4 3
239 2 1 4 5
240 3 1 4 6
241 2 1 4 21
242 3 1 4 23
243 4 1 4 25
244 1 2 4 3
245 3 2 4 5
246 2 2 4 6
247 1 2 4 21
248 1 2 4 23
249 3 2 4 25
250 1 3 4 5
251 1 3 4 6
252 3 3 4 21
253 2 3 4 23
254 3 3 4 25
255 1 5 4 6
256 4 5 4 21
257 3 5 4 23
258 2 5 4 25
259 3 6 4 21
260 1 6 4 23
261 1 6 4 25
262 1 21 4 23
263 2 21 4 25
264 1 23 4 25
265 1 486 5 403
266 2 486 5 406
267 1 486 5 407
268 1 486 5 84
269 2 486 5 86
270 1 486 5 88
271 3 486 5 3
272 3 486 5 4
273 4 486 5 6
274 3 486 5 7
275 3 486 5 8
276 1 403 5 406
277 2 403 5 407
278 1 403 5 84
279 3 403 5 86
280 3 403 5 88
281 2 403 5 3
282 1 403 5 4
283 3 403 5 6
284 4 403 5 7
285 3 403 5 8
286 1 406 5 407
287 3 406 5 84
288 4 406 5 86
289 3 406 5 88
290 3 406 5 3
291 1 406 5 4
292 2 406 5 6
293 3 406 5 7
294 1 406 5 8
295 3 407 5 84
296 3 407 5 86
297 1 407 5 88
298 4 407 5 3
299 3 407 5 4
300 3 407 5 6
301 2 407 5 7
302 1 407 5 8
303 1 84 5 86
304 2 84 5 88
305 1 84 5 3
306 2 84 5 4
307 3 84 5 6
308 3 84 5 7
309 4 84 5 8
310 1 86 5 88
311 1 86 5 3
312 3 86 5 4
313 2 86 5 6
314 1 86 5 7
315 3 86 5 8
316 3 88 5 3
317 4 88 5 4
318 3 88 5 6
319 1 88 5 7
320 2 88 5 8
321 1 3 5 4
322 1 3 5 6
323 2 3 5 7
324 3 3 5 8
325 1 4 5 6
326 3 4 5 7
327 2 4 5 8
328 1 6 5 7
329 1 6 5 8
330 1 7 5 8
331 1 3 6 4
332 1 3 6 5
333 2 3 6 7
334 3 3 6 8
335 2 3 6 23
336 3 3 6 25
337 4 3 6 27
338 1 3 6 104
339 1 3 6 105
340 3 3 6 108
341 3 3 6 125
342 1 4 6 5
343 3 4 6 7
344 2 4 6 8
345 1 4 6 23
346 1 4 6 25
347 3 4 6 27
348 2 4 6 104
349 3 4 6 105
350 4 4 6 108
351 3 4 6 125
352 1 5 6 7
353 1 5 6 8
354 3 5 6 23
355 2 5 6 25
356 3 5 6 27
357 3 5 6 104
358 2 5 6 105
359 3 5 6 108
360 4 5 6 125
361 1 7 6 8
362 4 7 6 23
363 3 7 6 25
364 2 7 6 27
365 3 7 6 104
366 1 7 6 105
367 1 7 6 108
368 3 7 6 125
369 3 8 6 23
370 1 8 6 25
371 1 8 6 27
372 4 8 6 104
373 3 8 6 105
374 2 8 6 108
375 3 8 6 125
376 1 23 6 25
377 2 23 6 27
378 1 23 6 104
379 3 23 6 105
380 3 23 6 108
381 1 23 6 125
382 1 25 6 27
383 3 25 6 104
384 4 25 6 105
385 3 25 6 108
386 2 25 6 125
387 3 27 6 104
388 3 27 6 105
389 1 27 6 108
390 1 27 6 125
391 1 104 6 105
392 2 104 6 108
393 1 104 6 125
394 1 105 6 108
395 2 105 6 125
396 1 108 6 125
397 1 86 7 88
398 2 86 7 90
399 1 86 7 5
400 2 86 7 6
401 3 86 7 8
402 3 86 7 9
403 4 86 7 10
404 1 86 7 188
405 1 86 7 105
406 3 86 7 108
407 3 86 7 109
408 1 88 7 90
409 1 88 7 5
410 3 88 7 6
411 2 88 7 8
412 1 88 7 9
413 3 88 7 10
414 2 88 7 188
415 3 88 7 105
416 4 88 7 108
417 3 88 7 109
418 3 90 7 5
419 4 90 7 6
420 3 90 7 8
421 1 90 7 9
422 2 90 7 10
423 1 90 7 188
424 3 90 7 105
425 3 90 7 108
426 1 90 7 109
427 1 5 7 6
428 1 5 7 8
429 2 5 7 9
430 3 5 7 10
431 3 5 7 188
432 2 5 7 105
433 3 5 7 108
434 4 5 7 109
435 1 6 7 8
436 3 6 7 9
437 2 6 7 10
438 3 6 7 188
439 1 6 7 105
440 1 6 7 108
441 3 6 7 109
442 1 8 7 9
443 1 8 7 10
444 4 8 7 188
445 3 8 7 105
446 2 8 7 108
447 3 8 7 109
448 1 9 7 10
449 3 9 7 188
450 4 9 7 105
451 3 9 7 108
452 2 9 7 109
453 3 10 7 188
454 3 10 7 105
455 1 10 7 108
456 1 10 7 109
457 1 188 7 105
458 2 188 7 108
459 1 188 7 109
460 1 105 7 108
461 2 105 7 109
462 1 108 7 109
463 1 406 8 407
464 2 406 8 410
465 1 406 8 427
466 1 406 8 5
467 2 406 8 6
468 3 406 8 7
469 3 406 8 9
470 4 406 8 10
471 1 406 8 25
472 3 406 8 27
473 3 406 8 29
474 1 407 8 410
475 2 407 8 427
476 1 407 8 5
477 3 407 8 6
478 2 407 8 7
479 1 407 8 9
480 3 407 8 10
481 3 407 8 25
482 4 407 8 27
483 3 407 8 29
484 1 410 8 427
485 3 410 8 5
486 4 410 8 6
487 3 410 8 7
488 1 410 8 9
489 2 410 8 10
490 3 410 8 25
491 3 410 8 27
492 1 410 8 29
493 3 427 8 5
494 3 427 8 6
495 4 427 8 7
496 3 427 8 9
497 3 427 8 10
498 1 427 8 25
499 2 427 8 27
500 1 427 8 29
501 1 5 8 6
502 1 5 8 7
503 2 5 8 9
504 3 5 8 10
505 2 5 8 25
506 3 5 8 27
507 4 5 8 29
508 1 6 8 7
509 3 6 8 9
510 2 6 8 10
511 1 6 8 25
512 1 6 8 27
513 3 6 8 29
514 1 7 8 9
515 1 7 8 10
516 3 7 8 25
517 2 7 8 27
518 3 7 8 29
519 1 9 8 10
520 4 9 8 25
521 3 9 8 27
522 2 9 8 29
523 3 10 8 25
524 1 10 8 27
525 1 10 8 29
526 1 25 8 27
527 2 25 8 29
528 1 27 8 29
529 1 490 9 407
530 2 490 9 410
531 1 490 9 411
532 1 490 9 88
533 2 490 9 90
534 1 490 9 92
535 3 490 9 7
536 3 490 9 8
537 4 490 9 10
538 3 490 9 11
539 3 490 9 12
540 1 407 9 410
541 2 407 9 411
542 1 407 9 88
543 3 407 9 90
544 3 407 9 92
545 2 407 9 7
546 1 407 9 8
547 3 407 9 10
548 4 407 9 11
549 3 407 9 12
550 1 410 9 411
551 3 410 9 88
552 4 410 9 90
553 3 410 9 92
554 3 410 9 7
555 1 410 9 8
556 2 410 9 10
557 3 410 9 11
558 1 410 9 12
559 3 411 9 88
560 3 411 9 90
561 1 411 9 92
562 4 411 9 7
563 3 411 9 8
564 3 411 9 10
565 2 411 9 11
566 1 411 9 12
567 1 88 9 90
568 2 88 9 92
569 1 88 9 7
570 2 88 9 8
571 3 88 9 10
572 3 88 9 11
573 4 88 9 12
574 1 90 9 92
575 1 90 9 7
576 3 90 9 8
577 2 90 9 10
578 1 90 9 11
579 3 90 9 12
580 3 92 9 7
581 4 92 9 8
582 3 92 9 10
583 1 92 9 11
584 2 92 9 12
585 1 7 9 8
586 1 7 9 10
587 2 7 9 11
588 3 7 9 12
589 1 8 9 10
590 3 8 9 11
591 2 8 9 12
592 1 10 9 11
593 1 10 9 12
594 1 11 9 12
595 1 7 10 8
596 1 7 10 9
597 2 7 10 11
598 3 7 10 12
599 2 7 10 27
600 3 7 10 29
601 4 7 10 31
602 1 7 10 108
603 1 7 10 109
604 3 7 10 112
605 3 7 10 129
606 1 8 10 9
607 3 8 10 11
608 2 8 10 12
609 1 8 10 27
610 1 8 10 29
611 3 8 10 31
612 2 8 10 108
613 3 8 10 109
614 4 8 10 112
615 3 8 10 129
616 1 9 10 11
617 1 9 10 12
618 3 9 10 27
619 2 9 10 29
620 3 9 10 31
621 3 9 10 108
622 2 9 10 109
623 3 9 10 112
624 4 9 10 129
625 1 11 10 12
626 4 11 10 27
627 3 11 10 29
628 2 11 10 31
629 3 11 10 108
630 1 11 10 109
631 1 11 10 112
632 3 11 10 129
633 3 12 10 27
634 1 12 10 29
635 1 12 10 31
636 4 12 10 108
637 3 12 10 109
638 2 12 10 112
639 3 12 10 129
640 1 27 10 29
641 2 27 10 31
642 1 27 10 108
643 3 27 10 109
644 3 27 10 112
645 1 27 10 129
646 1 29 10 31
647 3 29 10 108
648 4 29 10 109
649 3 29 10 112
650 2 29 10 129
651 3 31 10 108
652 3 31 10 109
653 1 31 10 112
654 1 31 10 129
655 1 108 10 109
656 2 108 10 112
657 1 108 10 129
658 1 109 10 112
659 2 109 10 129
660 1 112 10 129
661 1 90 11 92
662 2 90 11 94
663 1 90 11 9
664 2 90 11 10
665 3 90 11 12
666 3 90 11 13
667 4 90 11 14
668 1 90 11 192
669 1 90 11 109
670 3 90 11 112
671 3 90 11 113
672 1 92 11 94
673 1 92 11 9
674 3 92 11 10
675 2 92 11 12
676 1 92 11 13
677 3 92 11 14
678 2 92 11 192
679 3 92 11 109
680 4 92 11 112
681 3 92 11 113
682 3 94 11 9
683 4 94 11 10
684 3 94 11 12
685 1 94 11 13
686 2 94 11 14
687 1 94 11 192
688 3 94 11 109
689 3 94 11 112
690 1 94 11 113
691 1 9 11 10
692 1 9 11 12
693 2 9 11 13
694 3 9 11 14
695 3 9 11 192
696 2 9 11 109
697 3 9 11 112
698 4 9 11 113
699 1 10 11 12
700 3 10 11 13
701 2 10 11 14
702 3 10 11 192
703 1 10 11 109
704 1 10 11 112
705 3 10 11 113
706 1 12 11 13
707 1 12 11 14
708 4 12 11 192
709 3 12 11 109
710 2 12 11 112
711 3 12 11 113
712 1 13 11 14
713 3 13 11 192
714 4 13 11 109
715 3 13 11 112
716 2 13 11 113
717 3 14 11 192
718 3 14 11 109
719 1 14 11 112
720 1 14 11 113
721 1 192 11 109
722 2 192 11 112
723 1 192 11 113
724 1 109 11 112
725 2 109 11 113
726 1 112 11 113
727 1 410 12 411
728 2 410 12 414
729 1 410 12 431
730 1 410 12 9
731 2 410 12 10
732 3 410 12 11
733 3 410 12 13
734 4 410 12 14
735 1 410 12 29
736 3 410 12 31
737 3 410 12 33
738 1 411 12 414
739 2 411 12 431
740 1 411 12 9
741 3 411 12 10
742 2 411 12 11
743 1 411 12 13
744 3 411 12 14
745 3 411 12 29
746 4 411 12 31
747 3 411 12 33
748 1 414 12 431
749 3 414 12 9
750 4 414 12 10
751 3 414 12 11
752 1 414 12 13
753 2 414 12 14
754 3 414 12 29
755 3 414 12 31
756 1 414 12 33
757 3 431 12 9
758 3 431 12 10
759 4 431 12 11
760 3 431 12 13
761 3 431 12 14
762 1 431 12 29
763 2 431 12 31
764 1 431 12 33
765 1 9 12 10
766 1 9 12 11
767 2 9 12 13
768 3 9 12 14
769 2 9 12 29
770 3 9 12 31
771 4 9 12 33
772 1 10 12 11
773 3 10 12 13
774 2 10 12 14
775 1 10 12 29
776 1 10 12 31
777 3 10 12 33
778 1 11 12 13
779 1 11 12 14
780 3 11 12 29
781 2 11 12 31
782 3 11 12 33
783 1 13 12 14
784 4 13 12 29
785 3 13 12 31
786 2 13 12 33
787 3 14 12 29
788 1 14 12 31
789 1 14 12 33
790 1 29 12 31
791 2 29 12 33
792 1 31 12 33
793 1 494 13 411
794 2 494 13 414
795 1 494 13 415
796 1 494 13 92
797 2 494 13 94
798 1 494 13 96
799 3 494 13 11
800 3 494 13 12
801 4 494 13 14
802 3 494 13 15
803 3 494 13 16
804 1 411 13 414
805 2 411 13 415
806 1 411 13 92
807 3 411 13 94
808 3 411 13 96
809 2 411 13 11
810 1 411 13 12
811 3 411 13 14
812 4 411 13 15
813 3 411 13 16
814 1 414 13 415
815 3 414 13 92
816 4 414 13 94
817 3 414 13 96
818 3 414 13 11
819 1 414 13 12
820 2 414 13 14
821 3 414 13 15
822 1 414 13 16
823 3 415 13 92
824 3 415 13 94
825 1 415 13 96
826 4 415 13 11
827 3 415 13 12
828 3 415 13 14
829 2 415 13 15
830 1 415 13 16
831 1 92 13 94
832 2 92 13 96
833 1 92 13 11
834 2 92 13 12
835 3 92 13 14
836 3 92 13 15
837 4 92 13 16
838 1 94 13 96
839 1 94 13 11
840 3 94 13 12
841 2 94 13 14
842 1 94 13 15
843 3 94 13 16
844 3 96 13 11
845 4 96 13 12
846 3 96 13 14
847 1 96 13 15
848 2 96 13 16
849 1 11 13 12
850 1 11 13 14
851 2 11 13 15
852 3 11 13 16
853 1 12 13 14
854 3 12 13 15
855 2 12 13 16
856 1 14 13 15
857 1 14 13 16
858 1 15 13 16
859 1 11 14 12
860 1 11 14 13
861 2 11 14 15
862 3 11 14 16
863 2 11 14 31
864 3 11 14 33
865 4 11 14 35
866 1 11 14 112
867 1 11 14 113
868 3 11 14 116
869 3 11 14 133
870 1 12 14 13
871 3 12 14 15
872 2 12 14 16
873 1 12 14 31
874 1 12 14 33
875 3 12 14 35
876 2 12 14 112
877 3 12 14 113
878 4 12 14 116
879 3 12 14 133
880 1 13 14 15
881 1 13 14 16
882 3 13 14 31
883 2 13 14 33
884 3 13 14 35
885 3 13 14 112
886 2 13 14 113
887 3 13 14 116
888 4 13 14 133
889 1 15 14 16
890 4 15 14 31
891 3 15 14 33
892 2 15 14 35
893 3 15 14 112
894 1 15 14 113
895 1 15 14 116
896 3 15 14 133
897 3 16 14 31
898 1 16 14 33
899 1 16 14 35
900 4 16 14 112
901 3 16 14 113
902 2 16 14 116
903 3 16 14 133
904 1 31 14 33
905 2 31 14 35
906 1 31 14 112
907 3 31 14 113
908 3 31 14 116
909 1 31 14 133
910 1 33 14 35
911 3 33 14 112
912 4 33 14 113
913 3 33 14 116
914 2 33 14 133
915 3 35 14 112
916 3 35 14 113
917 1 35 14 116
918 1 35 14 133
919 1 112 14 113
920 2 112 14 116
921 1 112 14 133
922 1 113 14 116
923 2 113 14 133
924 1 116 14 133
925 1 94 15 96
926 2 94 15 98
927 1 94 15 13
928 2 94 15 14
929 3 94 15 16
930 3 94 15 17
931 4 94 15 18
932 1 94 15 196
933 1 94 15 113
934 3 94 15 116
935 3 94 15 117
936 1 96 15 98
937 1 96 15 13
938 3 96 15 14
939 2 96 15 16
940 1 96 15 17
941 3 96 15 18
942 2 96 15 196
943 3 96 15 113
944 4 96 15 116
945 3 96 15 117
946 3 98 15 13
947 4 98 15 14
948 3 98 15 16
949 1 98 15 17
950 2 98 15 18
951 1 98 15 196
952 3 98 15 113
953 3 98 15 116
954 1 98 15 117
955 1 13 15 14
956 1 13 15 16
957 2 13 15 17
958 3 13 15 18
959 3 13 15 196
960 2 13 15 113
961 3 13 15 116
962 4 13 15 117
963 1 14 15 16
964 3 14 15 17
965 2 14 15 18
966 3 14 15 196
967 1 14 15 113
968 1 14 15 116
969 3 14 15 117
970 1 16 15 17
971 1 16 15 18
972 4 16 15 196
973 3 16 15 113
974 2 16 15 116
975 3 16 15 117
976 1 17 15 18
977 3 17 15 196
978 4 17 15 113
979 3 17 15 116
980 2 17 15 117
981 3 18 15 196
982 3 18 15 113
983 1 18 15 116
984 1 18 15 117
985 1 196 15 113
986 2 196 15 116
987 1 196 15 117
988 1 113 15 116
989 2 113 15 117
990 1 116 15 117
991 1 414 16 415
992 2 414 16 418
993 1 414 16 435
994 1 414 16 13
995 2 414 16 14
996 3 414 16 15
997 3 414 16 17
998 4 414 16 18
999 1 414 16 33
1000 3 414 16 35
1001 3 414 16 37
1002 1 415 16 418
1003 2 415 16 435
1004 1 415 16 13
1005 3 415 16 14
1006 2 415 16 15
1007 1 415 16 17
1008 3 415 16 18
1009 3 415 16 33
1010 4 415 16 35
1011 3 415 16 37
1012 1 418 16 435
1013 3 418 16 13
1014 4 418 16 14
1015 3 418 16 15
1016 1 418 16 17
1017 2 418 16 18
1018 3 418 16 33
1019 3 418 16 35
1020 1 418 16 37
1021 3 435 16 13
1022 3 435 16 14
1023 4 435 16 15
1024 3 435 16 17
1025 3 435 16 18
1026 1 435 16 33
1027 2 435 16 35
1028 1 435 16 37
1029 1 13 16 14
1030 1 13 16 15
1031 2 13 16 17
1032 3 13 16 18
1033 2 13 16 33
1034 3 13 16 35
1035 4 13 16 37
1036 1 14 16 15
1037 3 14 16 17
1038 2 14 16 18
1039 1 14 16 33
1040 1 14 16 35
1041 3 14 16 37
1042 1 15 16 17
1043 1 15 16 18
1044 3 15 16 33
1045 2 15 16 35
1046 3 15 16 37
1047 1 17 16 18
1048 4 17 16 33
1049 3 17 16 35
1050 2 17 16 37
1051 3 18 16 33
1052 1 18 16 35
1053 1 18 16 37
1054 1 33 16 35
1055 2 33 16 37
1056 1 35 16 37
1057 1 498 17 415
1058 2 498 17 418
1059 1 498 17 419
1060 1 498 17 96
1061 2 498 17 98
1062 1 498 17 100
1063 3 498 17 15
1064 3 498 17 16
1065 4 498 17 18
1066 3 498 17 19
1067 3 498 17 20
1068 1 415 17 418
1069 2 415 17 419
1070 1 415 17 96
1071 3 415 17 98
1072 3 415 17 100
1073 2 415 17 15
1074 1 415 17 16
1075 3 415 17 18
1076 4 415 17 19
1077 3 415 17 20
1078 1 418 17 419
1079 3 418 17 96
1080 4 418 17 98
1081 3 418 17 100
1082 3 418 17 15
1083 1 418 17 16
1084 2 418 17 18
1085 3 418 17 19
1086 1 418 17 20
1087 3 419 17 96
1088 3 419 17 98
1089 1 419 17 100
1090 4 419 17 15
1091 3 419 17 16
1092 3 419 17 18
1093 2 419 17 19
1094 1 419 17 20
1095 1 96 17 98
1096 2 96 17 100
1097 1 96 17 15
1098 2 96 17 16
1099 3 96 17 18
1100 3 96 17 19
1101 4 96 17 20
1102 1 98 17 100
1103 1 98 17 15
1104 3 98 17 16
1105 2 98 17 18
1106 1 98 17 19
1107 3 98 17 20
1108 3 100 17 15
1109 4 100 17 16
1110 3 100 17 18
1111 1 100 17 19
1112 2 100 17 20
1113 1 15 17 16
1114 1 15 17 18
1115 2 15 17 19
1116 3 15 17 20
1117 1 16 17 18
1118 3 16 17 19
1119 2 16 17 20
1120 1 18 17 19
1121 1 18 17 20
1122 1 19 17 20
1123 1 15 18 16
1124 1 15 18 17
1125 2 15 18 19
1126 3 15 18 20
1127 2 15 18 35
1128 3 15 18 37
1129 4 15 18 39
1130 1 15 18 116
1131 1 15 18 117
1132 3 15 18 120
1133 3 15 18 137
1134 1 16 18 17
1135 3 16 18 19
1136 2 16 18 20
1137 1 16 18 35
1138 1 16 18 37
1139 3 16 18 39
1140 2 16 18 116
1141 3 16 18 117
1142 4 16 18 120
1143 3 16 18 137
1144 1 17 18 19
1145 1 17 18 20
1146 3 17 18 35
1147 2 17 18 37
1148 3 17 18 39
1149 3 17 18 116
1150 2 17 18 117
1151 3 17 18 120
1152 4 17 18 137
1153 1 19 18 20
1154 4 19 18 35
1155 3 19 18 37
1156 2 19 18 39
1157 3 19 18 116
1158 1 19 18 117
1159 1 19 18 120
1160 3 19 18 137
1161 3 20 18 35
1162 1 20 18 37
1163 1 20 18 39
1164 4 20 18 116
1165 3 20 18 117
1166 2 20 18 120
1167 3 20 18 137
1168 1 35 18 37
1169 2 35 18 39
1170 1 35 18 116
1171 3 35 18 117
1172 3 35 18 120
1173 1 35 18 137
1174 1 37 18 39
1175 3 37 18 116
1176 4 37 18 117
1177 3 37 18 120
1178 2 37 18 137
1179 3 39 18 116
1180 3 39 18 117
1181 1 39 18 120
1182 1 39 18 137
1183 1 116 18 117
1184 2 116 18 120
1185 1 116 18 137
1186 1 117 18 120
1187 2 117 18 137
1188 1 120 18 137
1189 1 98 19 100
1190 2 98 19 82
1191 1 98 19 17
1192 2 98 19 18
1193 3 98 19 20
1194 3 98 19 1
1195 4 98 19 2
1196 1 98 19 200
1197 1 98 19 117
1198 3 98 19 120
1199 3 98 19 101
1200 1 100 19 82
1201 1 100 19 17
1202 3 100 19 18
1203 2 100 19 20
1204 1 100 19 1
1205 3 100 19 2
1206 2 100 19 200
1207 3 100 19 117
1208 4 100 19 120
1209 3 100 19 101
1210 3 82 19 17
1211 4 82 19 18
1212 3 82 19 20
1213 1 82 19 1
1214 2 82 19 2
1215 1 82 19 200
1216 3 82 19 117
1217 3 82 19 120
1218 1 82 19 101
1219 1 17 19 18
1220 1 17 19 20
1221 2 17 19 1
1222 3 17 19 2
1223 3 17 19 200
1224 2 17 19 117
1225 3 17 19 120
1226 4 17 19 101
1227 1 18 19 20
1228 3 18 19 1
1229 2 18 19 2
1230 3 18 19 200
1231 1 18 19 117
1232 1 18 19 120
1233 3 18 19 101
1234 1 20 19 1
1235 1 20 19 2
1236 4 20 19 200
1237 3 20 19 117
1238 2 20 19 120
1239 3 20 19 101
1240 1 1 19 2
1241 3 1 19 200
1242 4 1 19 117
1243 3 1 19 120
1244 2 1 19 101
1245 3 2 19 200
1246 3 2 19 117
1247 1 2 19 120
1248 1 2 19 101
1249 1 200 19 117
1250 2 200 19 120
1251 1 200 19 101
1252 1 117 19 120
1253 2 117 19 101
1254 1 120 19 101
1255 1 418 20 419
1256 2 418 20 402
1257 1 418 20 439
1258 1 418 20 17
1259 2 418 20 18
1260 3 418 20 19
1261 3 418 20 1
1262 4 418 20 2
1263 1 418 20 37
1264 3 418 20 39
1265 3 418 20 21
1266 1 419 20 402
1267 2 419 20 439
1268 1 419 20 17
1269 3 419 20 18
1270 2 419 20 19
1271 1 419 20 1
1272 3 419 20 2
1273 3 419 20 37
1274 4 419 20 39
1275 3 419 20 21
1276 1 402 20 439
1277 3 402 20 17
1278 4 402 20 18
1279 3 402 20 19
1280 1 402 20 1
1281 2 402 20 2
1282 3 402 20 37
1283 3 402 20 39
1284 1 402 20 21
1285 3 439 20 17
1286 3 439 20 18
1287 4 439 20 19
1288 3 439 20 1
1289 3 439 20 2
1290 1 439 20 37
1291 2 439 20 39
1292 1 439 20 21
1293 1 17 20 18
1294 1 17 20 19
1295 2 17 20 1
1296 3 17 20 2
1297 2 17 20 37
1298 3 17 20 39
1299 4 17 20 21
1300 1 18 20 19
1301 3 18 20 1
1302 2 18 20 2
1303 1 18 20 37
1304 1 18 20 39
1305 3 18 20 21
1306 1 19 20 1
1307 1 19 20 2
1308 3 19 20 37
1309 2 19 20 39
1310 3 19 20 21
1311 1 1 20 2
1312 4 1 20 37
1313 3 1 20 39
1314 2 1 20 21
1315 3 2 20 37
1316 1 2 20 39
1317 1 2 20 21
1318 1 37 20 39
1319 2 37 20 21
1320 1 39 20 21
1321 1 402 21 439
1322 2 402 21 422
1323 1 402 21 423
1324 1 402 21 20
1325 2 402 21 2
1326 1 402 21 4
1327 3 402 21 39
1328 3 402 21 40
1329 4 402 21 22
1330 3 402 21 23
1331 3 402 21 24
1332 1 439 21 422
1333 2 439 21 423
1334 1 439 21 20
1335 3 439 21 2
1336 3 439 21 4
1337 2 439 21 39
1338 1 439 21 40
1339 3 439 21 22
1340 4 439 21 23
1341 3 439 21 24
1342 1 422 21 423
1343 3 422 21 20
1344 4 422 21 2
1345 3 422 21 4
1346 3 422 21 39
1347 1 422 21 40
1348 2 422 21 22
1349 3 422 21 23
1350 1 422 21 24
1351 3 423 21 20
1352 3 423 21 2
1353 1 423 21 4
1354 4 423 21 39
1355 3 423 21 40
1356 3 423 21 22
1357 2 423 21 23
1358 1 423 21 24
1359 1 20 21 2
1360 2 20 21 4
1361 1 20 21 39
1362 2 20 21 40
1363 3 20 21 22
1364 3 20 21 23
1365 4 20 21 24
1366 1 2 21 4
1367 1 2 21 39
1368 3 2 21 40
1369 2 2 21 22
1370 1 2 21 23
1371 3 2 21 24
1372 3 4 21 39
1373 4 4 21 40
1374 3 4 21 22
1375 1 4 21 23
1376 2 4 21 24
1377 1 39 21 40
1378 1 39 21 22
1379 2 39 21 23
1380 3 39 21 24
1381 1 40 21 22
1382 3 40 21 23
1383 2 40 21 24
1384 1 22 21 23
1385 1 22 21 24
1386 1 23 21 24
1387 1 39 22 40
1388 1 39 22 21
1389 2 39 22 23
1390 3 39 22 24
1391 2 39 22 59
1392 3 39 22 41
1393 4 39 22 43
1394 1 39 22 140
1395 1 39 22 121
1396 3 39 22 124
1397 3 39 22 141
1398 1 40 22 21
1399 3 40 22 23
1400 2 40 22 24
1401 1 40 22 59
1402 1 40 22 41
1403 3 40 22 43
1404 2 40 22 140
1405 3 40 22 121
1406 4 40 22 124
1407 3 40 22 141
1408 1 21 22 23
1409 1 21 22 24
1410 3 21 22 59
1411 2 21 22 41
1412 3 21 22 43
1413 3 21 22 140
1414 2 21 22 121
1415 3 21 22 124
1416 4 21 22 141
1417 1 23 22 24
1418 4 23 22 59
1419 3 23 22 41
1420 2 23 22 43
1421 3 23 22 140
1422 1 23 22 121
1423 1 23 22 124
1424 3 23 22 141
1425 3 24 22 59
1426 1 24 22 41
1427 1 24 22 43
1428 4 24 22 140
1429 3 24 22 121
1430 2 24 22 124
1431 3 24 22 141
1432 1 59 22 41
1433 2 59 22 43
1434 1 59 22 140
1435 3 59 22 121
1436 3 59 22 124
1437 1 59 22 141
1438 1 41 22 43
1439 3 41 22 140
1440 4 41 22 121
1441 3 41 22 124
1442 2 41 22 141
1443 3 43 22 140
1444 3 43 22 121
1445 1 43 22 124
1446 1 43 22 141
1447 1 140 22 121
1448 2 140 22 124
1449 1 140 22 141
1450 1 121 22 124
1451 2 121 22 141
1452 1 124 22 141
1453 1 2 23 4
1454 2 2 23 6
1455 1 2 23 21
1456 2 2 23 22
1457 3 2 23 24
1458 3 2 23 25
1459 4 2 23 26
1460 1 2 23 104
1461 1 2 23 121
1462 3 2 23 124
1463 3 2 23 125
1464 1 4 23 6
1465 1 4 23 21
1466 3 4 23 22
1467 2 4 23 24
1468 1 4 23 25
1469 3 4 23 26
1470 2 4 23 104
1471 3 4 23 121
1472 4 4 23 124
1473 3 4 23 125
1474 3 6 23 21
1475 4 6 23 22
1476 3 6 23 24
1477 1 6 23 25
1478 2 6 23 26
1479 1 6 23 104
1480 3 6 23 121
1481 3 6 23 124
1482 1 6 23 125
1483 1 21 23 22
1484 1 21 23 24
1485 2 21 23 25
1486 3 21 23 26
1487 3 21 23 104
1488 2 21 23 121
1489 3 21 23 124
1490 4 21 23 125
1491 1 22 23 24
1492 3 22 23 25
1493 2 22 23 26
1494 3 22 23 104
1495 1 22 23 121
1496 1 22 23 124
1497 3 22 23 125
1498 1 24 23 25
1499 1 24 23 26
1500 4 24 23 104
1501 3 24 23 121
1502 2 24 23 124
1503 3 24 23 125
1504 1 25 23 26
1505 3 25 23 104
1506 4 25 23 121
1507 3 25 23 124
1508 2 25 23 125
1509 3 26 23 104
1510 3 26 23 121
1511 1 26 23 124
1512 1 26 23 125
1513 1 104 23 121
1514 2 104 23 124
1515 1 104 23 125
1516 1 121 23 124
1517 2 121 23 125
1518 1 124 23 125
1519 1 422 24 423
1520 2 422 24 426
1521 1 422 24 443
1522 1 422 24 21
1523 2 422 24 22
1524 3 422 24 23
1525 3 422 24 25
1526 4 422 24 26
1527 1 422 24 41
1528 3 422 24 43
1529 3 422 24 45
1530 1 423 24 426
1531 2 423 24 443
1532 1 423 24 21
1533 3 423 24 22
1534 2 423 24 23
1535 1 423 24 25
1536 3 423 24 26
1537 3 423 24 41
1538 4 423 24 43
1539 3 423 24 45
1540 1 426 24 443
1541 3 426 24 21
1542 4 426 24 22
1543 3 426 24 23
1544 1 426 24 25
1545 2 426 24 26
1546 3 426 24 41
1547 3 426 24 43
1548 1 426 24 45
1549 3 443 24 21
1550 3 443 24 22
1551 4 443 24 23
1552 3 443 24 25
1553 3 443 24 26
1554 1 443 24 41
1555 2 443 24 43
1556 1 443 24 45
1557 1 21 24 22
1558 1 21 24 23
1559 2 21 24 25
1560 3 21 24 26
1561 2 21 24 41
1562 3 21 24 43
1563 4 21 24 45
1564 1 22 24 23
1565 3 22 24 25
1566 2 22 24 26
1567 1 22 24 41
1568 1 22 24 43
1569 3 22 24 45
1570 1 23 24 25
1571 1 23 24 26
1572 3 23 24 41
1573 2 23 24 43
1574 3 23 24 45
1575 1 25 24 26
1576 4 25 24 41
1577 3 25 24 43
1578 2 25 24 45
1579 3 26 24 41
1580 1 26 24 43
1581 1 26 24 45
1582 1 41 24 43
1583 2 41 24 45
1584 1 43 24 45
1585 1 406 25 423
1586 2 406 25 426
1587 1 406 25 427
1588 1 406 25 4
1589 2 406 25 6
1590 1 406 25 8
1591 3 406 25 23
1592 3 406 25 24
1593 4 406 25 26
1594 3 406 25 27
1595 3 406 25 28
1596 1 423 25 426
1597 2 423 25 427
1598 1 423 25 4
1599 3 423 25 6
1600 3 423 25 8
1601 2 423 25 23
1602 1 423 25 24
1603 3 423 25 26
1604 4 423 25 27
1605 3 423 25 28
1606 1 426 25 427
1607 3 426 25 4
1608 4 426 25 6
1609 3 426 25 8
1610 3 426 25 23
1611 1 426 25 24
1612 2 426 25 26
1613 3 426 25 27
1614 1 426 25 28
1615 3 427 25 4
1616 3 427 25 6
1617 1 427 25 8
1618 4 427 25 23
1619 3 427 25 24
1620 3 427 25 26
1621 2 427 25 27
1622 1 427 25 28
1623 1 4 25 6
1624 2 4 25 8
1625 1 4 25 23
1626 2 4 25 24
1627 3 4 25 26
1628 3 4 25 27
1629 4 4 25 28
1630 1 6 25 8
1631 1 6 25 23
1632 3 6 25 24
1633 2 6 25 26
1634 1 6 25 27
1635 3 6 25 28
1636 3 8 25 23
1637 4 8 25 24
1638 3 8 25 26
1639 1 8 25 27
1640 2 8 25 28
1641 1 23 25 24
1642 1 23 25 26
1643 2 23 25 27
1644 3 23 25 28
1645 1 24 25 26
1646 3 24 25 27
1647 2 24 25 28
1648 1 26 25 27
1649 1 26 25 28
1650 1 27 25 28
1651 1 23 26 24
1652 1 23 26 25
1653 2 23 26 27
1654 3 23 26 28
1655 2 23 26 43
1656 3 23 26 45
1657 4 23 26 47
1658 1 23 26 124
1659 1 23 26 125
1660 3 23 26 128
1661 3 23 26 145
1662 1 24 26 25
1663 3 24 26 27
1664 2 24 26 28
1665 1 24 26 43
1666 1 24 26 45
1667 3 24 26 47
1668 2 24 26 124
1669 3 24 26 125
1670 4 24 26 128
1671 3 24 26 145
1672 1 25 26 27
1673 1 25 26 28
1674 3 25 26 43
1675 2 25 26 45
1676 3 25 26 47
1677 3 25 26 124
1678 2 25 26 125
1679 3 25 26 128
1680 4 25 26 145
1681 1 27 26 28
1682 4 27 26 43
1683 3 27 26 45
1684 2 27 26 47
1685 3 27 26 124
1686 1 27 26 125
1687 1 27 26 128
1688 3 27 26 145
1689 3 28 26 43
1690 1 28 26 45
1691 1 28 26 47
1692 4 28 26 124
1693 3 28 26 125
1694 2 28 26 128
1695 3 28 26 145
1696 1 43 26 45
1697 2 43 26 47
1698 1 43 26 124
1699 3 43 26 125
1700 3 43 26 128
1701 1 43 26 145
1702 1 45 26 47
1703 3 45 26 124
1704 4 45 26 125
1705 3 45 26 128
1706 2 45 26 145
1707 3 47 26 124
1708 3 47 26 125
1709 1 47 26 128
1710 1 47 26 145
1711 1 124 26 125
1712 2 124 26 128
1713 1 124 26 145
1714 1 125 26 128
1715 2 125 26 145
1716 1 128 26 145
1717 1 6 27 8
1718 2 6 27 10
1719 1 6 27 25
1720 2 6 27 26
1721 3 6 27 28
1722 3 6 27 29
1723 4 6 27 30
1724 1 6 27 108
1725 1 6 27 125
1726 3 6 27 128
1727 3 6 27 129
1728 1 8 27 10
1729 1 8 27 25
1730 3 8 27 26
1731 2 8 27 28
1732 1 8 27 29
1733 3 8 27 30
1734 2 8 27 108
1735 3 8 27 125
1736 4 8 27 128
1737 3 8 27 129
1738 3 10 27 25
1739 4 10 27 26
1740 3 10 27 28
1741 1 10 27 29
1742 2 10 27 30
1743 1 10 27 108
1744 3 10 27 125
1745 3 10 27 128
1746 1 10 27 129
1747 1 25 27 26
1748 1 25 27 28
1749 2 25 27 29
1750 3 25 27 30
1751 3 25 27 108
1752 2 25 27 125
1753 3 25 27 128
1754 4 25 27 129
1755 1 26 27 28
1756 3 26 27 29
1757 2 26 27 30
1758 3 26 27 108
1759 1 26 27 125
1760 1 26 27 128
1761 3 26 27 129
1762 1 28 27 29
1763 1 28 27 30
1764 4 28 27 108
1765 3 28 27 125
1766 2 28 27 128
1767 3 28 27 129
1768 1 29 27 30
1769 3 29 27 108
1770 4 29 27 125
1771 3 29 27 128
1772 2 29 27 129
1773 3 30 27 108
1774 3 30 27 125
1775 1 30 27 128
1776 1 30 27 129
1777 1 108 27 125
1778 2 108 27 128
1779 1 108 27 129
1780 1 125 27 128
1781 2 125 27 129
1782 1 128 27 129
1783 1 426 28 427
1784 2 426 28 430
1785 1 426 28 447
1786 1 426 28 25
1787 2 426 28 26
1788 3 426 28 27
1789 3 426 28 29
1790 4 426 28 30
1791 1 426 28 45
1792 3 426 28 47
1793 3 426 28 49
1794 1 427 28 430
1795 2 427 28 447
1796 1 427 28 25
1797 3 427 28 26
1798 2 427 28 27
1799 1 427 28 29
1800 3 427 28 30
1801 3 427 28 45
1802 4 427 28 47
1803 3 427 28 49
1804 1 430 28 447
1805 3 430 28 25
1806 4 430 28 26
1807 3 430 28 27
1808 1 430 28 29
1809 2 430 28 30
1810 3 430 28 45
1811 3 430 28 47
1812 1 430 28 49
1813 3 447 28 25
1814 3 447 28 26
1815 4 447 28 27
1816 3 447 28 29
1817 3 447 28 30
1818 1 447 28 45
1819 2 447 28 47
1820 1 447 28 49
1821 1 25 28 26
1822 1 25 28 27
1823 2 25 28 29
1824 3 25 28 30
1825 2 25 28 45
1826 3 25 28 47
1827 4 25 28 49
1828 1 26 28 27
1829 3 26 28 29
1830 2 26 28 30
1831 1 26 28 45
1832 1 26 28 47
1833 3 26 28 49
1834 1 27 28 29
1835 1 27 28 30
1836 3 27 28 45
1837 2 27 28 47
1838 3 27 28 49
1839 1 29 28 30
1840 4 29 28 45
1841 3 29 28 47
1842 2 29 28 49
1843 3 30 28 45
1844 1 30 28 47
1845 1 30 28 49
1846 1 45 28 47
1847 2 45 28 49
1848 1 47 28 49
1849 1 410 29 427
1850 2 410 29 430
1851 1 410 29 431
1852 1 410 29 8
1853 2 410 29 10
1854 1 410 29 12
1855 3 410 29 27
1856 3 410 29 28
1857 4 410 29 30
1858 3 410 29 31
1859 3 410 29 32
1860 1 427 29 430
1861 2 427 29 431
1862 1 427 29 8
1863 3 427 29 10
1864 3 427 29 12
1865 2 427 29 27
1866 1 427 29 28
1867 3 427 29 30
1868 4 427 29 31
1869 3 427 29 32
1870 1 430 29 431
1871 3 430 29 8
1872 4 430 29 10
1873 3 430 29 12
1874 3 430 29 27
1875 1 430 29 28
1876 2 430 29 30
1877 3 430 29 31
1878 1 430 29 32
1879 3 431 29 8
1880 3 431 29 10
1881 1 431 29 12
1882 4 431 29 27
1883 3 431 29 28
1884 3 431 29 30
1885 2 431 29 31
1886 1 431 29 32
1887 1 8 29 10
1888 2 8 29 12
1889 1 8 29 27
1890 2 8 29 28
1891 3 8 29 30
1892 3 8 29 31
1893 4 8 29 32
1894 1 10 29 12
1895 1 10 29 27
1896 3 10 29 28
1897 2 10 29 30
1898 1 10 29 31
1899 3 10 29 32
1900 3 12 29 27
1901 4 12 29 28
1902 3 12 29 30
1903 1 12 29 31
1904 2 12 29 32
1905 1 27 29 28
1906 1 27 29 30
1907 2 27 29 31
1908 3 27 29 32
1909 1 28 29 30
1910 3 28 29 31
1911 2 28 29 32
1912 1 30 29 31
1913 1 30 29 32
1914 1 31 29 32
1915 1 27 30 28
1916 1 27 30 29
1917 2 27 30 31
1918 3 27 30 32
1919 2 27 30 47
1920 3 27 30 49
1921 4 27 30 51
1922 1 27 30 128
1923 1 27 30 129
1924 3 27 30 132
1925 3 27 30 149
1926 1 28 30 29
1927 3 28 30 31
1928 2 28 30 32
1929 1 28 30 47
1930 1 28 30 49
1931 3 28 30 51
1932 2 28 30 128
1933 3 28 30 129
1934 4 28 30 132
1935 3 28 30 149
1936 1 29 30 31
1937 1 29 30 32
1938 3 29 30 47
1939 2 29 30 49
1940 3 29 30 51
1941 3 29 30 128
1942 2 29 30 129
1943 3 29 30 132
1944 4 29 30 149
1945 1 31 30 32
1946 4 31 30 47
1947 3 31 30 49
1948 2 31 30 51
1949 3 31 30 128
1950 1 31 30 129
1951 1 31 30 132
1952 3 31 30 149
1953 3 32 30 47
1954 1 32 30 49
1955 1 32 30 51
1956 4 32 30 128
1957 3 32 30 129
1958 2 32 30 132
1959 3 32 30 149
1960 1 47 30 49
1961 2 47 30 51
1962 1 47 30 128
1963 3 47 30 129
1964 3 47 30 132
1965 1 47 30 149
1966 1 49 30 51
1967 3 49 30 128
1968 4 49 30 129
1969 3 49 30 132
1970 2 49 30 149
1971 3 51 30 128
1972 3 51 30 129
1973 1 51 30 132
1974 1 51 30 149
1975 1 128 30 129
1976 2 128 30 132
1977 1 128 30 149
1978 1 129 30 132
1979 2 129 30 149
1980 1 132 30 149
1981 1 10 31 12
1982 2 10 31 14
1983 1 10 31 29
1984 2 10 31 30
1985 3 10 31 32
1986 3 10 31 33
1987 4 10 31 34
1988 1 10 31 112
1989 1 10 31 129
1990 3 10 31 132
1991 3 10 31 133
1992 1 12 31 14
1993 1 12 31 29
1994 3 12 31 30
1995 2 12 31 32
1996 1 12 31 33
1997 3 12 31 34
1998 2 12 31 112
1999 3 12 31 129
2000 4 12 31 132
2001 3 12 31 133
2002 3 14 31 29
2003 4 14 31 30
2004 3 14 31 32
2005 1 14 31 33
2006 2 14 31 34
2007 1 14 31 112
2008 3 14 31 129
2009 3 14 31 132
2010 1 14 31 133
2011 1 29 31 30
2012 1 29 31 32
2013 2 29 31 33
2014 3 29 31 34
2015 3 29 31 112
2016 2 29 31 129
2017 3 29 31 132
2018 4 29 31 133
2019 1 30 31 32
2020 3 30 31 33
2021 2 30 31 34
2022 3 30 31 112
2023 1 30 31 129
2024 1 30 31 132
2025 3 30 31 133
2026 1 32 31 33
2027 1 32 31 34
2028 4 32 31 112
2029 3 32 31 129
2030 2 32 31 132
2031 3 32 31 133
2032 1 33 31 34
2033 3 33 31 112
2034 4 33 31 129
2035 3 33 31 132
2036 2 33 31 133
2037 3 34 31 112
2038 3 34 31 129
2039 1 34 31 132
2040 1 34 31 133
2041 1 112 31 129
2042 2 112 31 132
2043 1 112 31 133
2044 1 129 31 132
2045 2 129 31 133
2046 1 132 31 133
2047 1 430 32 431
2048 2 430 32 434
2049 1 430 32 451
2050 1 430 32 29
2051 2 430 32 30
2052 3 430 32 31
2053 3 430 32 33
2054 4 430 32 34
2055 1 430 32 49
2056 3 430 32 51
2057 3 430 32 53
2058 1 431 32 434
2059 2 431 32 451
2060 1 431 32 29
2061 3 431 32 30
2062 2 431 32 31
2063 1 431 32 33
2064 3 431 32 34
2065 3 431 32 49
2066 4 431 32 51
2067 3 431 32 53
2068 1 434 32 451
2069 3 434 32 29
2070 4 434 32 30
2071 3 434 32 31
2072 1 434 32 33
2073 2 434 32 34
2074 3 434 32 49
2075 3 434 32 51
2076 1 434 32 53
2077 3 451 32 29
2078 3 451 32 30
2079 4 451 32 31
2080 3 451 32 33
2081 3 451 32 34
2082 1 451 32 49
2083 2 451 32 51
2084 1 451 32 53
2085 1 29 32 30
2086 1 29 32 31
2087 2 29 32 33
2088 3 29 32 34
2089 2 29 32 49
2090 3 29 32 51
2091 4 29 32 53
2092 1 30 32 31
2093 3 30 32 33
2094 2 30 32 34
2095 1 30 32 49
2096 1 30 32 51
2097 3 30 32 53
2098 1 31 32 33
2099 1 31 32 34
2100 3 31 32 49
2101 2 31 32 51
2102 3 31 32 53
2103 1 33 32 34
2104 4 33 32 49
2105 3 33 32 51
2106 2 33 32 53
2107 3 34 32 49
2108 1 34 32 51
2109 1 34 32 53
2110 1 49 32 51
2111 2 49 32 53
2112 1 51 32 53
2113 1 414 33 431
2114 2 414 33 434
2115 1 414 33 435
2116 1 414 33 12
2117 2 414 33 14
2118 1 414 33 16
2119 3 414 33 31
2120 3 414 33 32
2121 4 414 33 34
2122 3 414 33 35
2123 3 414 33 36
2124 1 431 33 434
2125 2 431 33 435
2126 1 431 33 12
2127 3 431 33 14
2128 3 431 33 16
2129 2 431 33 31
2130 1 431 33 32
2131 3 431 33 34
2132 4 431 33 35
2133 3 431 33 36
2134 1 434 33 435
2135 3 434 33 12
2136 4 434 33 14
2137 3 434 33 16
2138 3 434 33 31
2139 1 434 33 32
2140 2 434 33 34
2141 3 434 33 35
2142 1 434 33 36
2143 3 435 33 12
2144 3 435 33 14
2145 1 435 33 16
2146 4 435 33 31
2147 3 435 33 32
2148 3 435 33 34
2149 2 435 33 35
2150 1 435 33 36
2151 1 12 33 14
2152 2 12 33 16
2153 1 12 33 31
2154 2 12 33 32
2155 3 12 33 34
2156 3 12 33 35
2157 4 12 33 36
2158 1 14 33 16
2159 1 14 33 31
2160 3 14 33 32
2161 2 14 33 34
2162 1 14 33 35
2163 3 14 33 36
2164 3 16 33 31
2165 4 16 33 32
2166 3 16 33 34
2167 1 16 33 35
2168 2 16 33 36
2169 1 31 33 32
2170 1 31 33 34
2171 2 31 33 35
2172 3 31 33 36
2173 1 32 33 34
2174 3 32 33 35
2175 2 32 33 36
2176 1 34 33 35
2177 1 34 33 36
2178 1 35 33 36
2179 1 31 34 32
2180 1 31 34 33
2181 2 31 34 35
2182 3 31 34 36
2183 2 31 34 51
2184 3 31 34 53
2185 4 31 34 55
2186 1 31 34 132
2187 1 31 34 133
2188 3 31 34 136
2189 3 31 34 153
2190 1 32 34 33
2191 3 32 34 35
2192 2 32 34 36
2193 1 32 34 51
2194 1 32 34 53
2195 3 32 34 55
2196 2 32 34 132
2197 3 32 34 133
2198 4 32 34 136
2199 3 32 34 153
2200 1 33 34 35
2201 1 33 34 36
2202 3 33 34 51
2203 2 33 34 53
2204 3 33 34 55
2205 3 33 34 132
2206 2 33 34 133
2207 3 33 34 136
2208 4 33 34 153
2209 1 35 34 36
2210 4 35 34 51
2211 3 35 34 53
2212 2 35 34 55
2213 3 35 34 132
2214 1 35 34 133
2215 1 35 34 136
2216 3 35 34 153
2217 3 36 34 51
2218 1 36 34 53
2219 1 36 34 55
2220 4 36 34 132
2221 3 36 34 133
2222 2 36 34 136
2223 3 36 34 153
2224 1 51 34 53
2225 2 51 34 55
2226 1 51 34 132
2227 3 51 34 133
2228 3 51 34 136
2229 1 51 34 153
2230 1 53 34 55
2231 3 53 34 132
2232 4 53 34 133
2233 3 53 34 136
2234 2 53 34 153
2235 3 55 34 132
2236 3 55 34 133
2237 1 55 34 136
2238 1 55 34 153
2239 1 132 34 133
2240 2 132 34 136
2241 1 132 34 153
2242 1 133 34 136
2243 2 133 34 153
2244 1 136 34 153
2245 1 14 35 16
2246 2 14 35 18
2247 1 14 35 33
2248 2 14 35 34
2249 3 14 35 36
2250 3 14 35 37
2251 4 14 35 38
2252 1 14 35 116
2253 1 14 35 133
2254 3 14 35 136
2255 3 14 35 137
2256 1 16 35 18
2257 1 16 35 33
2258 3 16 35 34
2259 2 16 35 36
2260 1 16 35 37
2261 3 16 35 38
2262 2 16 35 116
2263 3 16 35 133
2264 4 16 35 136
2265 3 16 35 137
2266 3 18 35 33
2267 4 18 35 34
2268 3 18 35 36
2269 1 18 35 37
2270 2 18 35 38
2271 1 18 35 116
2272 3 18 35 133
2273 3 18 35 136
2274 1 18 35 137
2275 1 33 35 34
2276 1 33 35 36
2277 2 33 35 37
2278 3 33 35 38
2279 3 33 35 116
2280 2 33 35 133
2281 3 33 35 136
2282 4 33 35 137
2283 1 34 35 36
2284 3 34 35 37
2285 2 34 35 38
2286 3 34 35 116
2287 1 34 35 133
2288 1 34 35 136
2289 3 34 35 137
2290 1 36 35 37
2291 1 36 35 38
2292 4 36 35 116
2293 3 36 35 133
2294 2 36 35 136
2295 3 36 35 137
2296 1 37 35 38
2297 3 37 35 116
2298 4 37 35 133
2299 3 37 35 136
2300 2 37 35 137
2301 3 38 35 116
2302 3 38 35 133
2303 1 38 35 136
2304 1 38 35 137
2305 1 116 35 133
2306 2 116 35 136
2307 1 116 35 137
2308 1 133 35 136
2309 2 133 35 137
2310 1 136 35 137
2311 1 434 36 435
2312 2 434 36 438
2313 1 434 36 455
2314 1 434 36 33
2315 2 434 36 34
2316 3 434 36 35
2317 3 434 36 37
2318 4 434 36 38
2319 1 434 36 53
2320 3 434 36 55
2321 3 434 36 57
2322 1 435 36 438
2323 2 435 36 455
2324 1 435 36 33
2325 3 435 36 34
2326 2 435 36 35
2327 1 435 36 37
2328 3 435 36 38
2329 3 435 36 53
2330 4 435 36 55
2331 3 435 36 57
2332 1 438 36 455
2333 3 438 36 33
2334 4 438 36 34
2335 3 438 36 35
2336 1 438 36 37
2337 2 438 36 38
2338 3 438 36 53
2339 3 438 36 55
2340 1 438 36 57
2341 3 455 36 33
2342 3 455 36 34
2343 4 455 36 35
2344 3 455 36 37
2345 3 455 36 38
2346 1 455 36 53
2347 2 455 36 55
2348 1 455 36 57
2349 1 33 36 34
2350 1 33 36 35
2351 2 33 36 37
2352 3 33 36 38
2353 2 33 36 53
2354 3 33 36 55
2355 4 33 36 57
2356 1 34 36 35
2357 3 34 36 37
2358 2 34 36 38
2359 1 34 36 53
2360 1 34 36 55
2361 3 34 36 57
2362 1 35 36 37
2363 1 35 36 38
2364 3 35 36 53
2365 2 35 36 55
2366 3 35 36 57
2367 1 37 36 38
2368 4 37 36 53
2369 3 37 36 55
2370 2 37 36 57
2371 3 38 36 53
2372 1 38 36 55
2373 1 38 36 57
2374 1 53 36 55
2375 2 53 36 57
2376 1 55 36 57
2377 1 418 37 435
2378 2 418 37 438
2379 1 418 37 439
2380 1 418 37 16
2381 2 418 37 18
2382 1 418 37 20
2383 3 418 37 35
2384 3 418 37 36
2385 4 418 37 38
2386 3 418 37 39
2387 3 418 37 40
2388 1 435 37 438
2389 2 435 37 439
2390 1 435 37 16
2391 3 435 37 18
2392 3 435 37 20
2393 2 435 37 35
2394 1 435 37 36
2395 3 435 37 38
2396 4 435 37 39
2397 3 435 37 40
2398 1 438 37 439
2399 3 438 37 16
2400 4 438 37 18
2401 3 438 37 20
2402 3 438 37 35
2403 1 438 37 36
2404 2 438 37 38
2405 3 438 37 39
2406 1 438 37 40
2407 3 439 37 16
2408 3 439 37 18
2409 1 439 37 20
2410 4 439 37 35
2411 3 439 37 36
2412 3 439 37 38
2413 2 439 37 39
2414 1 439 37 40
2415 1 16 37 18
2416 2 16 37 20
2417 1 16 37 35
2418 2 16 37 36
2419 3 16 37 38
2420 3 16 37 39
2421 4 16 37 40
2422 1 18 37 20
2423 1 18 37 35
2424 3 18 37 36
2425 2 18 37 38
2426 1 18 37 39
2427 3 18 37 40
2428 3 20 37 35
2429 4 20 37 36
2430 3 20 37 38
2431 1 20 37 39
2432 2 20 37 40
2433 1 35 37 36
2434 1 35 37 38
2435 2 35 37 39
2436 3 35 37 40
2437 1 36 37 38
2438 3 36 37 39
2439 2 36 37 40
2440 1 38 37 39
2441 1 38 37 40
2442 1 39 37 40
2443 1 35 38 36
2444 1 35 38 37
2445 2 35 38 39
2446 3 35 38 40
2447 2 35 38 55
2448 3 35 38 57
2449 4 35 38 59
2450 1 35 38 136
2451 1 35 38 137
2452 3 35 38 140
2453 3 35 38 157
2454 1 36 38 37
2455 3 36 38 39
2456 2 36 38 40
2457 1 36 38 55
2458 1 36 38 57
2459 3 36 38 59
2460 2 36 38 136
2461 3 36 38 137
2462 4 36 38 140
2463 3 36 38 157
2464 1 37 38 39
2465 1 37 38 40
2466 3 37 38 55
2467 2 37 38 57
2468 3 37 38 59
2469 3 37 38 136
2470 2 37 38 137
2471 3 37 38 140
2472 4 37 38 157
2473 1 39 38 40
2474 4 39 38 55
2475 3 39 38 57
2476 2 39 38 59
2477 3 39 38 136
2478 1 39 38 137
2479 1 39 38 140
2480 3 39 38 157
2481 3 40 38 55
2482 1 40 38 57
2483 1 40 38 59
2484 4 40 38 136
2485 3 40 38 137
2486 2 40 38 140
2487 3 40 38 157
2488 1 55 38 57
2489 2 55 38 59
2490 1 55 38 136
2491 3 55 38 137
2492 3 55 38 140
2493 1 55 38 157
2494 1 57 38 59
2495 3 57 38 136
2496 4 57 38 137
2497 3 57 38 140
2498 2 57 38 157
2499 3 59 38 136
2500 3 59 38 137
2501 1 59 38 140
2502 1 59 38 157
2503 1 136 38 137
2504 2 136 38 140
2505 1 136 38 157
2506 1 137 38 140
2507 2 137 38 157
2508 1 140 38 157
2509 1 18 39 20
2510 2 18 39 2
2511 1 18 39 37
2512 2 18 39 38
2513 3 18 39 40
2514 3 18 39 21
2515 4 18 39 22
2516 1 18 39 120
2517 1 18 39 137
2518 3 18 39 140
2519 3 18 39 121
2520 1 20 39 2
2521 1 20 39 37
2522 3 20 39 38
2523 2 20 39 40
2524 1 20 39 21
2525 3 20 39 22
2526 2 20 39 120
2527 3 20 39 137
2528 4 20 39 140
2529 3 20 39 121
2530 3 2 39 37
2531 4 2 39 38
2532 3 2 39 40
2533 1 2 39 21
2534 2 2 39 22
2535 1 2 39 120
2536 3 2 39 137
2537 3 2 39 140
2538 1 2 39 121
2539 1 37 39 38
2540 1 37 39 40
2541 2 37 39 21
2542 3 37 39 22
2543 3 37 39 120
2544 2 37 39 137
2545 3 37 39 140
2546 4 37 39 121
2547 1 38 39 40
2548 3 38 39 21
2549 2 38 39 22
2550 3 38 39 120
2551 1 38 39 137
2552 1 38 39 140
2553 3 38 39 121
2554 1 40 39 21
2555 1 40 39 22
2556 4 40 39 120
2557 3 40 39 137
2558 2 40 39 140
2559 3 40 39 121
2560 1 21 39 22
2561 3 21 39 120
2562 4 21 39 137
2563 3 21 39 140
2564 2 21 39 121
2565 3 22 39 120
2566 3 22 39 137
2567 1 22 39 140
2568 1 22 39 121
2569 1 120 39 137
2570 2 120 39 140
2571 1 120 39 121
2572 1 137 39 140
2573 2 137 39 121
2574 1 140 39 121
2575 1 438 40 439
2576 2 438 40 422
2577 1 438 40 459
2578 1 438 40 37
2579 2 438 40 38
2580 3 438 40 39
2581 3 438 40 21
2582 4 438 40 22
2583 1 438 40 57
2584 3 438 40 59
2585 3 438 40 41
2586 1 439 40 422
2587 2 439 40 459
2588 1 439 40 37
2589 3 439 40 38
2590 2 439 40 39
2591 1 439 40 21
2592 3 439 40 22
2593 3 439 40 57
2594 4 439 40 59
2595 3 439 40 41
2596 1 422 40 459
2597 3 422 40 37
2598 4 422 40 38
2599 3 422 40 39
2600 1 422 40 21
2601 2 422 40 22
2602 3 422 40 57
2603 3 422 40 59
2604 1 422 40 41
2605 3 459 40 37
2606 3 459 40 38
2607 4 459 40 39
2608 3 459 40 21
2609 3 459 40 22
2610 1 459 40 57
2611 2 459 40 59
2612 1 459 40 41
2613 1 37 40 38
2614 1 37 40 39
2615 2 37 40 21
2616 3 37 40 22
2617 2 37 40 57
2618 3 37 40 59
2619 4 37 40 41
2620 1 38 40 39
2621 3 38 40 21
2622 2 38 40 22
2623 1 38 40 57
2624 1 38 40 59
2625 3 38 40 41
2626 1 39 40 21
2627 1 39 40 22
2628 3 39 40 57
2629 2 39 40 59
2630 3 39 40 41
2631 1 21 40 22
2632 4 21 40 57
2633 3 21 40 59
2634 2 21 40 41
2635 3 22 40 57
2636 1 22 40 59
2637 1 22 40 41
2638 1 57 40 59
2639 2 57 40 41
2640 1 59 40 41
2641 1 422 41 459
2642 2 422 41 442
2643 1 422 41 443
2644 1 422 41 40
2645 2 422 41 22
2646 1 422 41 24
2647 3 422 41 59
2648 3 422 41 60
2649 4 422 41 42
2650 3 422 41 43
2651 3 422 41 44
2652 1 459 41 442
2653 2 459 41 443
2654 1 459 41 40
2655 3 459 41 22
2656 3 459 41 24
2657 2 459 41 59
2658 1 459 41 60
2659 3 459 41 42
2660 4 459 41 43
2661 3 459 41 44
2662 1 442 41 443
2663 3 442 41 40
2664 4 442 41 22
2665 3 442 41 24
2666 3 442 41 59
2667 1 442 41 60
2668 2 442 41 42
2669 3 442 41 43
2670 1 442 41 44
2671 3 443 41 40
2672 3 443 41 22
2673 1 443 41 24
2674 4 443 41 59
2675 3 443 41 60
2676 3 443 41 42
2677 2 443 41 43
2678 1 443 41 44
2679 1 40 41 22
2680 2 40 41 24
2681 1 40 41 59
2682 2 40 41 60
2683 3 40 41 42
2684 3 40 41 43
2685 4 40 41 44
2686 1 22 41 24
2687 1 22 41 59
2688 3 22 41 60
2689 2 22 41 42
2690 1 22 41 43
2691 3 22 41 44
2692 3 24 41 59
2693 4 24 41 60
2694 3 24 41 42
2695 1 24 41 43
2696 2 24 41 44
2697 1 59 41 60
2698 1 59 41 42
2699 2 59 41 43
2700 3 59 41 44
2701 1 60 41 42
2702 3 60 41 43
2703 2 60 41 44
2704 1 42 41 43
2705 1 42 41 44
2706 1 43 41 44
2707 1 59 42 60
2708 1 59 42 41
2709 2 59 42 43
2710 3 59 42 44
2711 2 59 42 79
2712 3 59 42 61
2713 4 59 42 63
2714 1 59 42 160
2715 1 59 42 141
2716 3 59 42 144
2717 3 59 42 161
2718 1 60 42 41
2719 3 60 42 43
2720 2 60 42 44
2721 1 60 42 79
2722 1 60 42 61
2723 3 60 42 63
2724 2 60 42 160
2725 3 60 42 141
2726 4 60 42 144
2727 3 60 42 161
2728 1 41 42 43
2729 1 41 42 44
2730 3 41 42 79
2731 2 41 42 61
2732 3 41 42 63
2733 3 41 42 160
2734 2 41 42 141
2735 3 41 42 144
2736 4 41 42 161
2737 1 43 42 44
2738 4 43 42 79
2739 3 43 42 61
2740 2 43 42 63
2741 3 43 42 160
2742 1 43 42 141
2743 1 43 42 144
2744 3 43 42 161
2745 3 44 42 79
2746 1 44 42 61
2747 1 44 42 63
2748 4 44 42 160
2749 3 44 42 141
2750 2 44 42 144
2751 3 44 42 161
2752 1 79 42 61
2753 2 79 42 63
2754 1 79 42 160
2755 3 79 42 141
2756 3 79 42 144
2757 1 79 42 161
2758 1 61 42 63
2759 3 61 42 160
2760 4 61 42 141
2761 3 61 42 144
2762 2 61 42 161
2763 3 63 42 160
2764 3 63 42 141
2765 1 63 42 144
2766 1 63 42 161
2767 1 160 42 141
2768 2 160 42 144
2769 1 160 42 161
2770 1 141 42 144
2771 2 141 42 161
2772 1 144 42 161
2773 1 22 43 24
2774 2 22 43 26
2775 1 22 43 41
2776 2 22 43 42
2777 3 22 43 44
2778 3 22 43 45
2779 4 22 43 46
2780 1 22 43 124
2781 1 22 43 141
2782 3 22 43 144
2783 3 22 43 145
2784 1 24 43 26
2785 1 24 43 41
2786 3 24 43 42
2787 2 24 43 44
2788 1 24 43 45
2789 3 24 43 46
2790 2 24 43 124
2791 3 24 43 141
2792 4 24 43 144
2793 3 24 43 145
2794 3 26 43 41
2795 4 26 43 42
2796 3 26 43 44
2797 1 26 43 45
2798 2 26 43 46
2799 1 26 43 124
2800 3 26 43 141
2801 3 26 43 144
2802 1 26 43 145
2803 1 41 43 42
2804 1 41 43 44
2805 2 41 43 45
2806 3 41 43 46
2807 3 41 43 124
2808 2 41 43 141
2809 3 41 43 144
2810 4 41 43 145
2811 1 42 43 44
2812 3 42 43 45
2813 2 42 43 46
2814 3 42 43 124
2815 1 42 43 141
2816 1 42 43 144
2817 3 42 43 145
2818 1 44 43 45
2819 1 44 43 46
2820 4 44 43 124
2821 3 44 43 141
2822 2 44 43 144
2823 3 44 43 145
2824 1 45 43 46
2825 3 45 43 124
2826 4 45 43 141
2827 3 45 43 144
2828 2 45 43 145
2829 3 46 43 124
2830 3 46 43 141
2831 1 46 43 144
2832 1 46 43 145
2833 1 124 43 141
2834 2 124 43 144
2835 1 124 43 145
2836 1 141 43 144
2837 2 141 43 145
2838 1 144 43 145
2839 1 442 44 443
2840 2 442 44 446
2841 1 442 44 463
2842 1 442 44 41
2843 2 442 44 42
2844 3 442 44 43
2845 3 442 44 45
2846 4 442 44 46
2847 1 442 44 61
2848 3 442 44 63
2849 3 442 44 65
2850 1 443 44 446
2851 2 443 44 463
2852 1 443 44 41
2853 3 443 44 42
2854 2 443 44 43
2855 1 443 44 45
2856 3 443 44 46
2857 3 443 44 61
2858 4 443 44 63
2859 3 443 44 65
2860 1 446 44 463
2861 3 446 44 41
2862 4 446 44 42
2863 3 446 44 43
2864 1 446 44 45
2865 2 446 44 46
2866 3 446 44 61
2867 3 446 44 63
2868 1 446 44 65
2869 3 463 44 41
2870 3 463 44 42
2871 4 463 44 43
2872 3 463 44 45
2873 3 463 44 46
2874 1 463 44 61
2875 2 463 44 63
2876 1 463 44 65
2877 1 41 44 42
2878 1 41 44 43
2879 2 41 44 45
2880 3 41 44 46
2881 2 41 44 61
2882 3 41 44 63
2883 4 41 44 65
2884 1 42 44 43
2885 3 42 44 45
2886 2 42 44 46
2887 1 42 44 61
2888 1 42 44 63
2889 3 42 44 65
2890 1 43 44 45
2891 1 43 44 46
2892 3 43 44 61
2893 2 43 44 63
2894 3 43 44 65
2895 1 45 44 46
2896 4 45 44 61
2897 3 45 44 63
2898 2 45 44 65
2899 3 46 44 61
2900 1 46 44 63
2901 1 46 44 65
2902 1 61 44 63
2903 2 61 44 65
2904 1 63 44 65
2905 1 426 45 443
2906 2 426 45 446
2907 1 426 45 447
2908 1 426 45 24
2909 2 426 45 26
2910 1 426 45 28
2911 3 426 45 43
2912 3 426 45 44
2913 4 426 45 46
2914 3 426 45 47
2915 3 426 45 48
2916 1 443 45 446
2917 2 443 45 447
2918 1 443 45 24
2919 3 443 45 26
2920 3 443 45 28
2921 2 443 45 43
2922 1 443 45 44
2923 3 443 45 46
2924 4 443 45 47
2925 3 443 45 48
2926 1 446 45 447
2927 3 446 45 24
2928 4 446 45 26
2929 3 446 45 28
2930 3 446 45 43
2931 1 446 45 44
2932 2 446 45 46
2933 3 446 45 47
2934 1 446 45 48
2935 3 447 45 24
2936 3 447 45 26
2937 1 447 45 28
2938 4 447 45 43
2939 3 447 45 44
2940 3 447 45 46
2941 2 447 45 47
2942 1 447 45 48
2943 1 24 45 26
2944 2 24 45 28
2945 1 24 45 43
2946 2 24 45 44
2947 3 24 45 46
2948 3 24 45 47
2949 4 24 45 48
2950 1 26 45 28
2951 1 26 45 43
2952 3 26 45 44
2953 2 26 45 46
2954 1 26 45 47
2955 3 26 45 48
2956 3 28 45 43
2957 4 28 45 44
2958 3 28 45 46
2959 1 28 45 47
2960 2 28 45 48
2961 1 43 45 44
2962 1 43 45 46
2963 2 43 45 47
2964 3 43 45 48
2965 1 44 45 46
2966 3 44 45 47
2967 2 44 45 48
2968 1 46 45 47
2969 1 46 45 48
2970 1 47 45 48
2971 1 43 46 44
2972 1 43 46 45
2973 2 43 46 47
2974 3 43 46 48
2975 2 43 46 63
2976 3 43 46 65
2977 4 43 46 67
2978 1 43 46 144
2979 1 43 46 145
2980 3 43 46 148
2981 3 43 46 165
2982 1 44 46 45
2983 3 44 46 47
2984 2 44 46 48
2985 1 44 46 63
2986 1 44 46 65
2987 3 44 46 67
2988 2 44 46 144
2989 3 44 46 145
2990 4 44 46 148
2991 3 44 46 165
2992 1 45 46 47
2993 1 45 46 48
2994 3 45 46 63
2995 2 45 46 65
2996 3 45 46 67
2997 3 45 46 144
2998 2 45 46 145
2999 3 45 46 148
3000 4 45 46 165
3001 1 47 46 48
3002 4 47 46 63
3003 3 47 46 65
3004 2 47 46 67
3005 3 47 46 144
3006 1 47 46 145
3007 1 47 46 148
3008 3 47 46 165
3009 3 48 46 63
3010 1 48 46 65
3011 1 48 46 67
3012 4 48 46 144
3013 3 48 46 145
3014 2 48 46 148
3015 3 48 46 165
3016 1 63 46 65
3017 2 63 46 67
3018 1 63 46 144
3019 3 63 46 145
3020 3 63 46 148
3021 1 63 46 165
3022 1 65 46 67
3023 3 65 46 144
3024 4 65 46 145
3025 3 65 46 148
3026 2 65 46 165
3027 3 67 46 144
3028 3 67 46 145
3029 1 67 46 148
3030 1 67 46 165
3031 1 144 46 145
3032 2 144 46 148
3033 1 144 46 165
3034 1 145 46 148
3035 2 145 46 165
3036 1 148 46 165
3037 1 26 47 28
3038 2 26 47 30
3039 1 26 47 45
3040 2 26 47 46
3041 3 26 47 48
3042 3 26 47 49
3043 4 26 47 50
3044 1 26 47 128
3045 1 26 47 145
3046 3 26 47 148
3047 3 26 47 149
3048 1 28 47 30
3049 1 28 47 45
3050 3 28 47 46
3051 2 28 47 48
3052 1 28 47 49
3053 3 28 47 50
3054 2 28 47 128
3055 3 28 47 145
3056 4 28 47 148
3057 3 28 47 149
3058 3 30 47 45
3059 4 30 47 46
3060 3 30 47 48
3061 1 30 47 49
3062 2 30 47 50
3063 1 30 47 128
3064 3 30 47 145
3065 3 30 47 148
3066 1 30 47 149
3067 1 45 47 46
3068 1 45 47 48
3069 2 45 47 49
3070 3 45 47 50
3071 3 45 47 128
3072 2 45 47 145
3073 3 45 47 148
3074 4 45 47 149
3075 1 46 47 48
3076 3 46 47 49
3077 2 46 47 50
3078 3 46 47 128
3079 1 46 47 145
3080 1 46 47 148
3081 3 46 47 149
3082 1 48 47 49
3083 1 48 47 50
3084 4 48 47 128
3085 3 48 47 145
3086 2 48 47 148
3087 3 48 47 149
3088 1 49 47 50
3089 3 49 47 128
3090 4 49 47 145
3091 3 49 47 148
3092 2 49 47 149
3093 3 50 47 128
3094 3 50 47 145
3095 1 50 47 148
3096 1 50 47 149
3097 1 128 47 145
3098 2 128 47 148
3099 1 128 47 149
3100 1 145 47 148
3101 2 145 47 149
3102 1 148 47 149
3103 1 446 48 447
3104 2 446 48 450
3105 1 446 48 467
3106 1 446 48 45
3107 2 446 48 46
3108 3 446 48 47
3109 3 446 48 49
3110 4 446 48 50
3111 1 446 48 65
3112 3 446 48 67
3113 3 446 48 69
3114 1 447 48 450
3115 2 447 48 467
3116 1 447 48 45
3117 3 447 48 46
3118 2 447 48 47
3119 1 447 48 49
3120 3 447 48 50
3121 3 447 48 65
3122 4 447 48 67
3123 3 447 48 69
3124 1 450 48 467
3125 3 450 48 45
3126 4 450 48 46
3127 3 450 48 47
3128 1 450 48 49
3129 2 450 48 50
3130 3 450 48 65
3131 3 450 48 67
3132 1 450 48 69
3133 3 467 48 45
3134 3 467 48 46
3135 4 467 48 47
3136 3 467 48 49
3137 3 467 48 50
3138 1 467 48 65
3139 2 467 48 67
3140 1 467 48 69
3141 1 45 48 46
3142 1 45 48 47
3143 2 45 48 49
3144 3 45 48 50
3145 2 45 48 65
3146 3 45 48 67
3147 4 45 48 69
3148 1 46 48 47
3149 3 46 48 49
3150 2 46 48 50
3151 1 46 48 65
3152 1 46 48 67
3153 3 46 48 69
3154 1 47 48 49
3155 1 47 48 50
3156 3 47 48 65
3157 2 47 48 67
3158 3 47 48 69
3159 1 49 48 50
3160 4 49 48 65
3161 3 49 48 67
3162 2 49 48 69
3163 3 50 48 65
3164 1 50 48 67
3165 1 50 48 69
3166 1 65 48 67
3167 2 65 48 69
3168 1 67 48 69
3169 1 430 49 447
3170 2 430 49 450
3171 1 430 49 451
3172 1 430 49 28
3173 2 430 49 30
3174 1 430 49 32
3175 3 430 49 47
3176 3 430 49 48
3177 4 430 49 50
3178 3 430 49 51
3179 3 430 49 52
3180 1 447 49 450
3181 2 447 49 451
3182 1 447 49 28
3183 3 447 49 30
3184 3 447 49 32
3185 2 447 49 47
3186 1 447 49 48
3187 3 447 49 50
3188 4 447 49 51
3189 3 447 49 52
3190 1 450 49 451
3191 3 450 49 28
3192 4 450 49 30
3193 3 450 49 32
3194 3 450 49 47
3195 1 450 49 48
3196 2 450 49 50
3197 3 450 49 51
3198 1 450 49 52
3199 3 451 49 28
3200 3 451 49 30
3201 1 451 49 32
3202 4 451 49 47
3203 3 451 49 48
3204 3 451 49 50
3205 2 451 49 51
3206 1 451 49 52
3207 1 28 49 30
3208 2 28 49 32
3209 1 28 49 47
3210 2 28 49 48
3211 3 28 49 50
3212 3 28 49 51
3213 4 28 49 52
3214 1 30 49 32
3215 1 30 49 47
3216 3 30 49 48
3217 2 30 49 50
3218 1 30 49 51
3219 3 30 49 52
3220 3 32 49 47
3221 4 32 49 48
3222 3 32 49 50
3223 1 32 49 51
3224 2 32 49 52
3225 1 47 49 48
3226 1 47 49 50
3227 2 47 49 51
3228 3 47 49 52
3229 1 48 49 50
3230 3 48 49 51
3231 2 48 49 52
3232 1 50 49 51
3233 1 50 49 52
3234 1 51 49 52
3235 1 47 50 48
3236 1 47 50 49
3237 2 47 50 51
3238 3 47 50 52
3239 2 47 50 67
3240 3 47 50 69
3241 4 47 50 71
3242 1 47 50 148
3243 1 47 50 149
3244 3 47 50 152
3245 3 47 50 169
3246 1 48 50 49
3247 3 48 50 51
3248 2 48 50 52
3249 1 48 50 67
3250 1 48 50 69
3251 3 48 50 71
3252 2 48 50 148
3253 3 48 50 149
3254 4 48 50 152
3255 3 48 50 169
3256 1 49 50 51
3257 1 49 50 52
3258 3 49 50 67
3259 2 49 50 69
3260 3 49 50 71
3261 3 49 50 148
3262 2 49 50 149
3263 3 49 50 152
3264 4 49 50 169
3265 1 51 50 52
3266 4 51 50 67
3267 3 51 50 69
3268 2 51 50 71
3269 3 51 50 148
3270 1 51 50 149
3271 1 51 50 152
3272 3 51 50 169
3273 3 52 50 67
3274 1 52 50 69
3275 1 52 50 71
3276 4 52 50 148
3277 3 52 50 149
3278 2 52 50 152
3279 3 52 50 169
3280 1 67 50 69
3281 2 67 50 71
3282 1 67 50 148
3283 3 67 50 149
3284 3 67 50 152
3285 1 67 50 169
3286 1 69 50 71
3287 3 69 50 148
3288 4 69 50 149
3289 3 69 50 152
3290 2 69 50 169
3291 3 71 50 148
3292 3 71 50 149
3293 1 71 50 152
3294 1 71 50 169
3295 1 148 50 149
3296 2 148 50 152
3297 1 148 50 169
3298 1 149 50 152
3299 2 149 50 169
3300 1 152 50 169
3301 1 30 51 32
3302 2 30 51 34
3303 1 30 51 49
3304 2 30 51 50
3305 3 30 51 52
3306 3 30 51 53
3307 4 30 51 54
3308 1 30 51 132
3309 1 30 51 149
3310 3 30 51 152
3311 3 30 51 153
3312 1 32 51 34
3313 1 32 51 49
3314 3 32 51 50
3315 2 32 51 52
3316 1 32 51 53
3317 3 32 51 54
3318 2 32 51 132
3319 3 32 51 149
3320 4 32 51 152
3321 3 32 51 153
3322 3 34 51 49
3323 4 34 51 50
3324 3 34 51 52
3325 1 34 51 53
3326 2 34 51 54
3327 1 34 51 132
3328 3 34 51 149
3329 3 34 51 152
3330 1 34 51 153
3331 1 49 51 50
3332 1 49 51 52
3333 2 49 51 53
3334 3 49 51 54
3335 3 49 51 132
3336 2 49 51 149
3337 3 49 51 152
3338 4 49 51 153
3339 1 50 51 52
3340 3 50 51 53
3341 2 50 51 54
3342 3 50 51 132
3343 1 50 51 149
3344 1 50 51 152
3345 3 50 51 153
3346 1 52 51 53
3347 1 52 51 54
3348 4 52 51 132
3349 3 52 51 149
3350 2 52 51 152
3351 3 52 51 153
3352 1 53 51 54
3353 3 53 51 132
3354 4 53 51 149
3355 3 53 51 152
3356 2 53 51 153
3357 3 54 51 132
3358 3 54 51 149
3359 1 54 51 152
3360 1 54 51 153
3361 1 132 51 149
3362 2 132 51 152
3363 1 132 51 153
3364 1 149 51 152
3365 2 149 51 153
3366 1 152 51 153
3367 1 450 52 451
3368 2 450 52 454
3369 1 450 52 471
3370 1 450 52 49
3371 2 450 52 50
3372 3 450 52 51
3373 3 450 52 53
3374 4 450 52 54
3375 1 450 52 69
3376 3 450 52 71
3377 3 450 52 73
3378 1 451 52 454
3379 2 451 52 471
3380 1 451 52 49
3381 3 451 52 50
3382 2 451 52 51
3383 1 451 52 53
3384 3 451 52 54
3385 3 451 52 69
3386 4 451 52 71
3387 3 451 52 73
3388 1 454 52 471
3389 3 454 52 49
3390 4 454 52 50
3391 3 454 52 51
3392 1 454 52 53
3393 2 454 52 54
3394 3 454 52 69
3395 3 454 52 71
3396 1 454 52 73
3397 3 471 52 49
3398 3 471 52 50
3399 4 471 52 51
3400 3 471 52 53
3401 3 471 52 54
3402 1 471 52 69
3403 2 471 52 71
3404 1 471 52 73
3405 1 49 52 50
3406 1 49 52 51
3407 2 49 52 53
3408 3 49 52 54
3409 2 49 52 69
3410 3 49 52 71
3411 4 49 52 73
3412 1 50 52 51
3413 3 50 52 53
3414 2 50 52 54
3415 1 50 52 69
3416 1 50 52 71
3417 3 50 52 73
3418 1 51 52 53
3419 1 51 52 54
3420 3 51 52 69
3421 2 51 52 71
3422 3 51 52 73
3423 1 53 52 54
3424 4 53 52 69
3425 3 53 52 71
3426 2 53 52 73
3427 3 54 52 69
3428 1 54 52 71
3429 1 54 52 73
3430 1 69 52 71
3431 2 69 52 73
3432 1 71 52 73
3433 1 434 53 451
3434 2 434 53 454
3435 1 434 53 455
3436 1 434 53 32
3437 2 434 53 34
3438 1 434 53 36
3439 3 434 53 51
3440 3 434 53 52
3441 4 434 53 54
3442 3 434 53 55
3443 3 434 53 56
3444 1 451 53 454
3445 2 451 53 455
3446 1 451 53 32
3447 3 451 53 34
3448 3 451 53 36
3449 2 451 53 51
3450 1 451 53 52
3451 3 451 53 54
3452 4 451 53 55
3453 3 451 53 56
3454 1 454 53 455
3455 3 454 53 32
3456 4 454 53 34
3457 3 454 53 36
3458 3 454 53 51
3459 1 454 53 52
3460 2 454 53 54
3461 3 454 53 55
3462 1 454 53 56
3463 3 455 53 32
3464 3 455 53 34
3465 1 455 53 36
3466 4 455 53 51
3467 3 455 53 52
3468 3 455 53 54
3469 2 455 53 55
3470 1 455 53 56
3471 1 32 53 34
3472 2 32 53 36
3473 1 32 53 51
3474 2 32 53 52
3475 3 32 53 54
3476 3 32 53 55
3477 4 32 53 56
3478 1 34 53 36
3479 1 34 53 51
3480 3 34 53 52
3481 2 34 53 54
3482 1 34 53 55
3483 3 34 53 56
3484 3 36 53 51
3485 4 36 53 52
3486 3 36 53 54
3487 1 36 53 55
3488 2 36 53 56
3489 1 51 53 52
3490 1 51 53 54
3491 2 51 53 55
3492 3 51 53 56
3493 1 52 53 54
3494 3 52 53 55
3495 2 52 53 56
3496 1 54 53 55
3497 1 54 53 56
3498 1 55 53 56
3499 1 51 54 52
3500 1 51 54 53
3501 2 51 54 55
3502 3 51 54 56
3503 2 51 54 71
3504 3 51 54 73
3505 4 51 54 75
3506 1 51 54 152
3507 1 51 54 153
3508 3 51 54 156
3509 3 51 54 173
3510 1 52 54 53
3511 3 52 54 55
3512 2 52 54 56
3513 1 52 54 71
3514 1 52 54 73
3515 3 52 54 75
3516 2 52 54 152
3517 3 52 54 153
3518 4 52 54 156
3519 3 52 54 173
3520 1 53 54 55
3521 1 53 54 56
3522 3 53 54 71
3523 2 53 54 73
3524 3 53 54 75
3525 3 53 54 152
3526 2 53 54 153
3527 3 53 54 156
3528 4 53 54 173
3529 1 55 54 56
3530 4 55 54 71
3531 3 55 54 73
3532 2 55 54 75
3533 3 55 54 152
3534 1 55 54 153
3535 1 55 54 156
3536 3 55 54 173
3537 3 56 54 71
3538 1 56 54 73
3539 1 56 54 75
3540 4 56 54 152
3541 3 56 54 153
3542 2 56 54 156
3543 3 56 54 173
3544 1 71 54 73
3545 2 71 54 75
3546 1 71 54 152
3547 3 71 54 153
3548 3 71 54 156
3549 1 71 54 173
3550 1 73 54 75
3551 3 73 54 152
3552 4 73 54 153
3553 3 73 54 156
3554 2 73 54 173
3555 3 75 54 152
3556 3 75 54 153
3557 1 75 54 156
3558 1 75 54 173
3559 1 152 54 153
3560 2 152 54 156
3561 1 152 54 173
3562 1 153 54 156
3563 2 153 54 173
3564 1 156 54 173
3565 1 34 55 36
3566 2 34 55 38
3567 1 34 55 53
3568 2 34 55 54
3569 3 34 55 56
3570 3 34 55 57
3571 4 34 55 58
3572 1 34 55 136
3573 1 34 55 153
3574 3 34 55 156
3575 3 34 55 157
3576 1 36 55 38
3577 1 36 55 53
3578 3 36 55 54
3579 2 36 55 56
3580 1 36 55 57
3581 3 36 55 58
3582 2 36 55 136
3583 3 36 55 153
3584 4 36 55 156
3585 3 36 55 157
3586 3 38 55 53
3587 4 38 55 54
3588 3 38 55 56
3589 1 38 55 57
3590 2 38 55 58
3591 1 38 55 136
3592 3 38 55 153
3593 3 38 55 156
3594 1 38 55 157
3595 1 53 55 54
3596 1 53 55 56
3597 2 53 55 57
3598 3 53 55 58
3599 3 53 55 136
3600 2 53 55 153
3601 3 53 55 156
3602 4 53 55 157
3603 1 54 55 56
3604 3 54 55 57
3605 2 54 55 58
3606 3 54 55 136
3607 1 54 55 153
3608 1 54 55 156
3609 3 54 55 157
3610 1 56 55 57
3611 1 56 55 58
3612 4 56 55 136
3613 3 56 55 153
3614 2 56 55 156
3615 3 56 55 157
3616 1 57 55 58
3617 3 57 55 136
3618 4 57 55 153
3619 3 57 55 156
3620 2 57 55 157
3621 3 58 55 136
3622 3 58 55 153
3623 1 58 55 156
3624 1 58 55 157
3625 1 136 55 153
3626 2 136 55 156
3627 1 136 55 157
3628 1 153 55 156
3629 2 153 55 157
3630 1 156 55 157
3631 1 454 56 455
3632 2 454 56 458
3633 1 454 56 475
3634 1 454 56 53
3635 2 454 56 54
3636 3 454 56 55
3637 3 454 56 57
3638 4 454 56 58
3639 1 454 56 73
3640 3 454 56 75
3641 3 454 56 77
3642 1 455 56 458
3643 2 455 56 475
3644 1 455 56 53
3645 3 455 56 54
3646 2 455 56 55
3647 1 455 56 57
3648 3 455 56 58
3649 3 455 56 73
3650 4 455 56 75
3651 3 455 56 77
3652 1 458 56 475
3653 3 458 56 53
3654 4 458 56 54
3655 3 458 56 55
3656 1 458 56 57
3657 2 458 56 58
3658 3 458 56 73
3659 3 458 56 75
3660 1 458 56 77
3661 3 475 56 53
3662 3 475 56 54
3663 4 475 56 55
3664 3 475 56 57
3665 3 475 56 58
3666 1 475 56 73
3667 2 475 56 75
3668 1 475 56 77
3669 1 53 56 54
3670 1 53 56 55
3671 2 53 56 57
3672 3 53 56 58
3673 2 53 56 73
3674 3 53 56 75
3675 4 53 56 77
3676 1 54 56 55
3677 3 54 56 57
3678 2 54 56 58
3679 1 54 56 73
3680 1 54 56 75
3681 3 54 56 77
3682 1 55 56 57
3683 1 55 56 58
3684 3 55 56 73
3685 2 55 56 75
3686 3 55 56 77
3687 1 57 56 58
3688 4 57 56 73
3689 3 57 56 75
3690 2 57 56 77
3691 3 58 56 73
3692 1 58 56 75
3693 1 58 56 77
3694 1 73 56 75
3695 2 73 56 77
3696 1 75 56 77
3697 1 438 57 455
3698 2 438 57 458
3699 1 438 57 459
3700 1 438 57 36
3701 2 438 57 38
3702 1 438 57 40
3703 3 438 57 55
3704 3 438 57 56
3705 4 438 57 58
3706 3 438 57 59
3707 3 438 57 60
3708 1 455 57 458
3709 2 455 57 459
3710 1 455 57 36
3711 3 455 57 38
3712 3 455 57 40
3713 2 455 57 55
3714 1 455 57 56
3715 3 455 57 58
3716 4 455 57 59
3717 3 455 57 60
3718 1 458 57 459
3719 3 458 57 36
3720 4 458 57 38
3721 3 458 57 40
3722 3 458 57 55
3723 1 458 57 56
3724 2 458 57 58
3725 3 458 57 59
3726 1 458 57 60
3727 3 459 57 36
3728 3 459 57 38
3729 1 459 57 40
3730 4 459 57 55
3731 3 459 57 56
3732 3 459 57 58
3733 2 459 57 59
3734 1 459 57 60
3735 1 36 57 38
3736 2 36 57 40
3737 1 36 57 55
3738 2 36 57 56
3739 3 36 57 58
3740 3 36 57 59
3741 4 36 57 60
3742 1 38 57 40
3743 1 38 57 55
3744 3 38 57 56
3745 2 38 57 58
3746 1 38 57 59
3747 3 38 57 60
3748 3 40 57 55
3749 4 40 57 56
3750 3 40 57 58
3751 1 40 57 59
3752 2 40 57 60
3753 1 55 57 56
3754 1 55 57 58
3755 2 55 57 59
3756 3 55 57 60
3757 1 56 57 58
3758 3 56 57 59
3759 2 56 57 60
3760 1 58 57 59
3761 1 58 57 60
3762 1 59 57 60
3763 1 55 58 56
3764 1 55 58 57
3765 2 55 58 59
3766 3 55 58 60
3767 2 55 58 75
3768 3 55 58 77
3769 4 55 58 79
3770 1 55 58 156
3771 1 55 58 157
3772 3 55 58 160
3773 3 55 58 177
3774 1 56 58 57
3775 3 56 58 59
3776 2 56 58 60
3777 1 56 58 75
3778 1 56 58 77
3779 3 56 58 79
3780 2 56 58 156
3781 3 56 58 157
3782 4 56 58 160
3783 3 56 58 177
3784 1 57 58 59
3785 1 57 58 60
3786 3 57 58 75
3787 2 57 58 77
3788 3 57 58 79
3789 3 57 58 156
3790 2 57 58 157
3791 3 57 58 160
3792 4 57 58 177
3793 1 59 58 60
3794 4 59 58 75
3795 3 59 58 77
3796 2 59 58 79
3797 3 59 58 156
3798 1 59 58 157
3799 1 59 58 160
3800 3 59 58 177
3801 3 60 58 75
3802 1 60 58 77
3803 1 60 58 79
3804 4 60 58 156
3805 3 60 58 157
3806 2 60 58 160
3807 3 60 58 177
3808 1 75 58 77
3809 2 75 58 79
3810 1 75 58 156
3811 3 75 58 157
3812 3 75 58 160
3813 1 75 58 177
3814 1 77 58 79
3815 3 77 58 156
3816 4 77 58 157
3817 3 77 58 160
3818 2 77 58 177
3819 3 79 58 156
3820 3 79 58 157
3821 1 79 58 160
3822 1 79 58 177
3823 1 156 58 157
3824 2 156 58 160
3825 1 156 58 177
3826 1 157 58 160
3827 2 157 58 177
3828 1 160 58 177
3829 1 38 59 40
3830 2 38 59 22
3831 1 38 59 57
3832 2 38 59 58
3833 3 38 59 60
3834 3 38 59 41
3835 4 38 59 42
3836 1 38 59 140
3837 1 38 59 157
3838 3 38 59 160
3839 3 38 59 141
3840 1 40 59 22
3841 1 40 59 57
3842 3 40 59 58
3843 2 40 59 60
3844 1 40 59 41
3845 3 40 59 42
3846 2 40 59 140
3847 3 40 59 157
3848 4 40 59 160
3849 3 40 59 141
3850 3 22 59 57
3851 4 22 59 58
3852 3 22 59 60
3853 1 22 59 41
3854 2 22 59 42
3855 1 22 59 140
3856 3 22 59 157
3857 3 22 59 160
3858 1 22 59 141
3859 1 57 59 58
3860 1 57 59 60
3861 2 57 59 41
3862 3 57 59 42
3863 3 57 59 140
3864 2 57 59 157
3865 3 57 59 160
3866 4 57 59 141
3867 1 58 59 60
3868 3 58 59 41
3869 2 58 59 42
3870 3 58 59 140
3871 1 58 59 157
3872 1 58 59 160
3873 3 58 59 141
3874 1 60 59 41
3875 1 60 59 42
3876 4 60 59 140
3877 3 60 59 157
3878 2 60 59 160
3879 3 60 59 141
3880 1 41 59 42
3881 3 41 59 140
3882 4 41 59 157
3883 3 41 59 160
3884 2 41 59 141
3885 3 42 59 140
3886 3 42 59 157
3887 1 42 59 160
3888 1 42 59 141
3889 1 140 59 157
3890 2 140 59 160
3891 1 140 59 141
3892 1 157 59 160
3893 2 157 59 141
3894 1 160 59 141
3895 1 458 60 459
3896 2 458 60 442
3897 1 458 60 479
3898 1 458 60 57
3899 2 458 60 58
3900 3 458 60 59
3901 3 458 60 41
3902 4 458 60 42
3903 1 458 60 77
3904 3 458 60 79
3905 3 458 60 61
3906 1 459 60 442
3907 2 459 60 479
3908 1 459 60 57
3909 3 459 60 58
3910 2 459 60 59
3911 1 459 60 41
3912 3 459 60 42
3913 3 459 60 77
3914 4 459 60 79
3915 3 459 60 61
3916 1 442 60 479
3917 3 442 60 57
3918 4 442 60 58
3919 3 442 60 59
3920 1 442 60 41
3921 2 442 60 42
3922 3 442 60 77
3923 3 442 60 79
3924 1 442 60 61
3925 3 479 60 57
3926 3 479 60 58
3927 4 479 60 59
3928 3 479 60 41
3929 3 479 60 42
3930 1 479 60 77
3931 2 479 60 79
3932 1 479 60 61
3933 1 57 60 58
3934 1 57 60 59
3935 2 57 60 41
3936 3 57 60 42
3937 2 57 60 77
3938 3 57 60 79
3939 4 57 60 61
3940 1 58 60 59
3941 3 58 60 41
3942 2 58 60 42
3943 1 58 60 77
3944 1 58 60 79
3945 3 58 60 61
3946 1 59 60 41
3947 1 59 60 42
3948 3 59 60 77
3949 2 59 60 79
3950 3 59 60 61
3951 1 41 60 42
3952 4 41 60 77
3953 3 41 60 79
3954 2 41 60 61
3955 3 42 60 77
3956 1 42 60 79
3957 1 42 60 61
3958 1 77 60 79
3959 2 77 60 61
3960 1 79 60 61
3961 1 442 61 479
3962 2 442 61 462
3963 1 442 61 463
3964 1 442 61 60
3965 2 442 61 42
3966 1 442 61 44
3967 3 442 61 79
3968 3 442 61 80
3969 4 442 61 62
3970 3 442 61 63
3971 3 442 61 64
3972 1 479 61 462
3973 2 479 61 463
3974 1 479 61 60
3975 3 479 61 42
3976 3 479 61 44
3977 2 479 61 79
3978 1 479 61 80
3979 3 479 61 62
3980 4 479 61 63
3981 3 479 61 64
3982 1 462 61 463
3983 3 462 61 60
3984 4 462 61 42
3985 3 462 61 44
3986 3 462 61 79
3987 1 462 61 80
3988 2 462 61 62
3989 3 462 61 63
3990 1 462 61 64
3991 3 463 61 60
3992 3 463 61 42
3993 1 463 61 44
3994 4 463 61 79
3995 3 463 61 80
3996 3 463 61 62
3997 2 463 61 63
3998 1 463 61 64
3999 1 60 61 42
4000 2 60 61 44
4001 1 60 61 79
4002 2 60 61 80
4003 3 60 61 62
4004 3 60 61 63
4005 4 60 61 64
4006 1 42 61 44
4007 1 42 61 79
4008 3 42 61 80
4009 2 42 61 62
4010 1 42 61 63
4011 3 42 61 64
4012 3 44 61 79
4013 4 44 61 80
4014 3 44 61 62
4015 1 44 61 63
4016 2 44 61 64
4017 1 79 61 80
4018 1 79 61 62
4019 2 79 61 63
4020 3 79 61 64
4021 1 80 61 62
4022 3 80 61 63
4023 2 80 61 64
4024 1 62 61 63
4025 1 62 61 64
4026 1 63 61 64
4027 1 79 62 80
4028 1 79 62 61
4029 2 79 62 63
4030 3 79 62 64
4031 2 79 62 99
4032 3 79 62 81
4033 4 79 62 83
4034 1 79 62 180
4035 1 79 62 161
4036 3 79 62 164
4037 3 79 62 181
4038 1 80 62 61
4039 3 80 62 63
4040 2 80 62 64
4041 1 80 62 99
4042 1 80 62 81
4043 3 80 62 83
4044 2 80 62 180
4045 3 80 62 161
4046 4 80 62 164
4047 3 80 62 181
4048 1 61 62 63
4049 1 61 62 64
4050 3 61 62 99
4051 2 61 62 81
4052 3 61 62 83
4053 3 61 62 180
4054 2 61 62 161
4055 3 61 62 164
4056 4 61 62 181
4057 1 63 62 64
4058 4 63 62 99
4059 3 63 62 81
4060 2 63 62 83
4061 3 63 62 180
4062 1 63 62 161
4063 1 63 62 164
4064 3 63 62 181
4065 3 64 62 99
4066 1 64 62 81
4067 1 64 62 83
4068 4 64 62 180
4069 3 64 62 161
4070 2 64 62 164
4071 3 64 62 181
4072 1 99 62 81
4073 2 99 62 83
4074 1 99 62 180
4075 3 99 62 161
4076 3 99 62 164
4077 1 99 62 181
4078 1 81 62 83
4079 3 81 62 180
4080 4 81 62 161
4081 3 81 62 164
4082 2 81 62 181
4083 3 83 62 180
4084 3 83 62 161
4085 1 83 62 164
4086 1 83 62 181
4087 1 180 62 161
4088 2 180 62 164
4089 1 180 62 181
4090 1 161 62 164
4091 2 161 62 181
4092 1 164 62 181
4093 1 42 63 44
4094 2 42 63 46
4095 1 42 63 61
4096 2 42 63 62
4097 3 42 63 64
4098 3 42 63 65
4099 4 42 63 66
4100 1 42 63 144
4101 1 42 63 161
4102 3 42 63 164
4103 3 42 63 165
4104 1 44 63 46
4105 1 44 63 61
4106 3 44 63 62
4107 2 44 63 64
4108 1 44 63 65
4109 3 44 63 66
4110 2 44 63 144
4111 3 44 63 161
4112 4 44 63 164
4113 3 44 63 165
4114 3 46 63 61
4115 4 46 63 62
4116 3 46 63 64
4117 1 46 63 65
4118 2 46 63 66
4119 1 46 63 144
4120 3 46 63 161
4121 3 46 63 164
4122 1 46 63 165
4123 1 61 63 62
4124 1 61 63 64
4125 2 61 63 65
4126 3 61 63 66
4127 3 61 63 144
4128 2 61 63 161
4129 3 61 63 164
4130 4 61 63 165
4131 1 62 63 64
4132 3 62 63 65
4133 2 62 63 66
4134 3 62 63 144
4135 1 62 63 161
4136 1 62 63 164
4137 3 62 63 165
4138 1 64 63 65
4139 1 64 63 66
4140 4 64 63 144
4141 3 64 63 161
4142 2 64 63 164
4143 3 64 63 165
4144 1 65 63 66
4145 3 65 63 144
4146 4 65 63 161
4147 3 65 63 164
4148 2 65 63 165
4149 3 66 63 144
4150 3 66 63 161
4151 1 66 63 164
4152 1 66 63 165
4153 1 144 63 161
4154 2 144 63 164
4155 1 144 63 165
4156 1 161 63 164
4157 2 161 63 165
4158 1 164 63 165
4159 1 462 64 463
4160 2 462 64 466
4161 1 462 64 483
4162 1 462 64 61
4163 2 462 64 62
4164 3 462 64 63
4165 3 462 64 65
4166 4 462 64 66
4167 1 462 64 81
4168 3 462 64 83
4169 3 462 64 85
4170 1 463 64 466
4171 2 463 64 483
4172 1 463 64 61
4173 3 463 64 62
4174 2 463 64 63
4175 1 463 64 65
4176 3 463 64 66
4177 3 463 64 81
4178 4 463 64 83
4179 3 463 64 85
4180 1 466 64 483
4181 3 466 64 61
4182 4 466 64 62
4183 3 466 64 63
4184 1 466 64 65
4185 2 466 64 66
4186 3 466 64 81
4187 3 466 64 83
4188 1 466 64 85
4189 3 483 64 61
4190 3 483 64 62
4191 4 483 64 63
4192 3 483 64 65
4193 3 483 64 66
4194 1 483 64 81
4195 2 483 64 83
4196 1 483 64 85
4197 1 61 64 62
4198 1 61 64 63
4199 2 61 64 65
4200 3 61 64 66
4201 2 61 64 81
4202 3 61 64 83
4203 4 61 64 85
4204 1 62 64 63
4205 3 62 64 65
4206 2 62 64 66
4207 1 62 64 81
4208 1 62 64 83
4209 3 62 64 85
4210 1 63 64 65
4211 1 63 64 66
4212 3 63 64 81
4213 2 63 64 83
4214 3 63 64 85
4215 1 65 64 66
4216 4 65 64 81
4217 3 65 64 83
4218 2 65 64 85
4219 3 66 64 81
4220 1 66 64 83
4221 1 66 64 85
4222 1 81 64 83
4223 2 81 64 85
4224 1 83 64 85
4225 1 446 65 463
4226 2 446 65 466
4227 1 446 65 467
4228 1 446 65 44
4229 2 446 65 46
4230 1 446 65 48
4231 3 446 65 63
4232 3 446 65 64
4233 4 446 65 66
4234 3 446 65 67
4235 3 446 65 68
4236 1 463 65 466
4237 2 463 65 467
4238 1 463 65 44
4239 3 463 65 46
4240 3 463 65 48
4241 2 463 65 63
4242 1 463 65 64
4243 3 463 65 66
4244 4 463 65 67
4245 3 463 65 68
4246 1 466 65 467
4247 3 466 65 44
4248 4 466 65 46
4249 3 466 65 48
4250 3 466 65 63
4251 1 466 65 64
4252 2 466 65 66
4253 3 466 65 67
4254 1 466 65 68
4255 3 467 65 44
4256 3 467 65 46
4257 1 467 65 48
4258 4 467 65 63
4259 3 467 65 64
4260 3 467 65 66
4261 2 467 65 67
4262 1 467 65 68
4263 1 44 65 46
4264 2 44 65 48
4265 1 44 65 63
4266 2 44 65 64
4267 3 44 65 66
4268 3 44 65 67
4269 4 44 65 68
4270 1 46 65 48
4271 1 46 65 63
4272 3 46 65 64
4273 2 46 65 66
4274 1 46 65 67
4275 3 46 65 68
4276 3 48 65 63
4277 4 48 65 64
4278 3 48 65 66
4279 1 48 65 67
4280 2 48 65 68
4281 1 63 65 64
4282 1 63 65 66
4283 2 63 65 67
4284 3 63 65 68
4285 1 64 65 66
4286 3 64 65 67
4287 2 64 65 68
4288 1 66 65 67
4289 1 66 65 68
4290 1 67 65 68
4291 1 63 66 64
4292 1 63 66 65
4293 2 63 66 67
4294 3 63 66 68
4295 2 63 66 83
4296 3 63 66 85
4297 4 63 66 87
4298 1 63 66 164
4299 1 63 66 165
4300 3 63 66 168
4301 3 63 66 185
4302 1 64 66 65
4303 3 64 66 67
4304 2 64 66 68
4305 1 64 66 83
4306 1 64 66 85
4307 3 64 66 87
4308 2 64 66 164
4309 3 64 66 165
4310 4 64 66 168
4311 3 64 66 185
4312 1 65 66 67
4313 1 65 66 68
4314 3 65 66 83
4315 2 65 66 85
4316 3 65 66 87
4317 3 65 66 164
4318 2 65 66 165
4319 3 65 66 168
4320 4 65 66 185
4321 1 67 66 68
4322 4 67 66 83
4323 3 67 66 85
4324 2 67 66 87
4325 3 67 66 164
4326 1 67 66 165
4327 1 67 66 168
4328 3 67 66 185
4329 3 68 66 83
4330 1 68 66 85
4331 1 68 66 87
4332 4 68 66 164
4333 3 68 66 165
4334 2 68 66 168
4335 3 68 66 185
4336 1 83 66 85
4337 2 83 66 87
4338 1 83 66 164
4339 3 83 66 165
4340 3 83 66 168
4341 1 83 66 185
4342 1 85 66 87
4343 3 85 66 164
4344 4 85 66 165
4345 3 85 66 168
4346 2 85 66 185
4347 3 87 66 164
4348 3 87 66 165
4349 1 87 66 168
4350 1 87 66 185
4351 1 164 66 165
4352 2 164 66 168
4353 1 164 66 185
4354 1 165 66 168
4355 2 165 66 185
4356 1 168 66 185
4357 1 46 67 48
4358 2 46 67 50
4359 1 46 67 65
4360 2 46 67 66
4361 3 46 67 68
4362 3 46 67 69
4363 4 46 67 70
4364 1 46 67 148
4365 1 46 67 165
4366 3 46 67 168
4367 3 46 67 169
4368 1 48 67 50
4369 1 48 67 65
4370 3 48 67 66
4371 2 48 67 68
4372 1 48 67 69
4373 3 48 67 70
4374 2 48 67 148
4375 3 48 67 165
4376 4 48 67 168
4377 3 48 67 169
4378 3 50 67 65
4379 4 50 67 66
4380 3 50 67 68
4381 1 50 67 69
4382 2 50 67 70
4383 1 50 67 148
4384 3 50 67 165
4385 3 50 67 168
4386 1 50 67 169
4387 1 65 67 66
4388 1 65 67 68
4389 2 65 67 69
4390 3 65 67 70
4391 3 65 67 148
4392 2 65 67 165
4393 3 65 67 168
4394 4 65 67 169
4395 1 66 67 68
4396 3 66 67 69
4397 2 66 67 70
4398 3 66 67 148
4399 1 66 67 165
4400 1 66 67 168
4401 3 66 67 169
4402 1 68 67 69
4403 1 68 67 70
4404 4 68 67 148
4405 3 68 67 165
4406 2 68 67 168
4407 3 68 67 169
4408 1 69 67 70
4409 3 69 67 148
4410 4 69 67 165
4411 3 69 67 168
4412 2 69 67 169
4413 3 70 67 148
4414 3 70 67 165
4415 1 70 67 168
4416 1 70 67 169
4417 1 148 67 165
4418 2 148 67 168
4419 1 148 67 169
4420 1 165 67 168
4421 2 165 67 169
4422 1 168 67 169
4423 1 466 68 467
4424 2 466 68 470
4425 1 466 68 487
4426 1 466 68 65
4427 2 466 68 66
4428 3 466 68 67
4429 3 466 68 69
4430 4 466 68 70
4431 1 466 68 85
4432 3 466 68 87
4433 3 466 68 89
4434 1 467 68 470
4435 2 467 68 487
4436 1 467 68 65
4437 3 467 68 66
4438 2 467 68 67
4439 1 467 68 69
4440 3 467 68 70
4441 3 467 68 85
4442 4 467 68 87
4443 3 467 68 89
4444 1 470 68 487
4445 3 470 68 65
4446 4 470 68 66
4447 3 470 68 67
4448 1 470 68 69
4449 2 470 68 70
4450 3 470 68 85
4451 3 470 68 87
4452 1 470 68 89
4453 3 487 68 65
4454 3 487 68 66
4455 4 487 68 67
4456 3 487 68 69
4457 3 487 68 70
4458 1 487 68 85
4459 2 487 68 87
4460 1 487 68 89
4461 1 65 68 66
4462 1 65 68 67
4463 2 65 68 69
4464 3 65 68 70
4465 2 65 68 85
4466 3 65 68 87
4467 4 65 68 89
4468 1 66 68 67
4469 3 66 68 69
4470 2 66 68 70
4471 1 66 68 85
4472 1 66 68 87
4473 3 66 68 89
4474 1 67 68 69
4475 1 67 68 70
4476 3 67 68 85
4477 2 67 68 87
4478 3 67 68 89
4479 1 69 68 70
4480 4 69 68 85
4481 3 69 68 87
4482 2 69 68 89
4483 3 70 68 85
4484 1 70 68 87
4485 1 70 68 89
4486 1 85 68 87
4487 2 85 68 89
4488 1 87 68 89
4489 1 450 69 467
4490 2 450 69 470
4491 1 450 69 471
4492 1 450 69 48
4493 2 450 69 50
4494 1 450 69 52
4495 3 450 69 67
4496 3 450 69 68
4497 4 450 69 70
4498 3 450 69 71
4499 3 450 69 72
4500 1 467 69 470
4501 2 467 69 471
4502 1 467 69 48
4503 3 467 69 50
4504 3 467 69 52
4505 2 467 69 67
4506 1 467 69 68
4507 3 467 69 70
4508 4 467 69 71
4509 3 467 69 72
4510 1 470 69 471
4511 3 470 69 48
4512 4 470 69 50
4513 3 470 69 52
4514 3 470 69 67
4515 1 470 69 68
4516 2 470 69 70
4517 3 470 69 71
4518 1 470 69 72
4519 3 471 69 48
4520 3 471 69 50
4521 1 471 69 52
4522 4 471 69 67
4523 3 471 69 68
4524 3 471 69 70
4525 2 471 69 71
4526 1 471 69 72
4527 1 48 69 50
4528 2 48 69 52
4529 1 48 69 67
4530 2 48 69 68
4531 3 48 69 70
4532 3 48 69 71
4533 4 48 69 72
4534 1 50 69 52
4535 1 50 69 67
4536 3 50 69 68
4537 2 50 69 70
4538 1 50 69 71
4539 3 50 69 72
4540 3 52 69 67
4541 4 52 69 68
4542 3 52 69 70
4543 1 52 69 71
4544 2 52 69 72
4545 1 67 69 68
4546 1 67 69 70
4547 2 67 69 71
4548 3 67 69 72
4549 1 68 69 70
4550 3 68 69 71
4551 2 68 69 72
4552 1 70 69 71
4553 1 70 69 72
4554 1 71 69 72
4555 1 67 70 68
4556 1 67 70 69
4557 2 67 70 71
4558 3 67 70 72
4559 2 67 70 87
4560 3 67 70 89
4561 4 67 70 91
4562 1 67 70 168
4563 1 67 70 169
4564 3 67 70 172
4565 3 67 70 189
4566 1 68 70 69
4567 3 68 70 71
4568 2 68 70 72
4569 1 68 70 87
4570 1 68 70 89
4571 3 68 70 91
4572 2 68 70 168
4573 3 68 70 169
4574 4 68 70 172
4575 3 68 70 189
4576 1 69 70 71
4577 1 69 70 72
4578 3 69 70 87
4579 2 69 70 89
4580 3 69 70 91
4581 3 69 70 168
4582 2 69 70 169
4583 3 69 70 172
4584 4 69 70 189
4585 1 71 70 72
4586 4 71 70 87
4587 3 71 70 89
4588 2 71 70 91
4589 3 71 70 168
4590 1 71 70 169
4591 1 71 70 172
4592 3 71 70 189
4593 3 72 70 87
4594 1 72 70 89
4595 1 72 70 91
4596 4 72 70 168
4597 3 72 70 169
4598 2 72 70 172
4599 3 72 70 189
4600 1 87 70 89
4601 2 87 70 91
4602 1 87 70 168
4603 3 87 70 169
4604 3 87 70 172
4605 1 87 70 189
4606 1 89 70 91
4607 3 89 70 168
4608 4 89 70 169
4609 3 89 70 172
4610 2 89 70 189
4611 3 91 70 168
4612 3 91 70 169
4613 1 91 70 172
4614 1 91 70 189
4615 1 168 70 169
4616 2 168 70 172
4617 1 168 70 189
4618 1 169 70 172
4619 2 169 70 189
4620 1 172 70 189
4621 1 50 71 52
4622 2 50 71 54
4623 1 50 71 69
4624 2 50 71 70
4625 3 50 71 72
4626 3 50 71 73
4627 4 50 71 74
4628 1 50 71 152
4629 1 50 71 169
4630 3 50 71 172
4631 3 50 71 173
4632 1 52 71 54
4633 1 52 71 69
4634 3 52 71 70
4635 2 52 71 72
4636 1 52 71 73
4637 3 52 71 74
4638 2 52 71 152
4639 3 52 71 169
4640 4 52 71 172
4641 3 52 71 173
4642 3 54 71 69
4643 4 54 71 70
4644 3 54 71 72
4645 1 54 71 73
4646 2 54 71 74
4647 1 54 71 152
4648 3 54 71 169
4649 3 54 71 172
4650 1 54 71 173
4651 1 69 71 70
4652 1 69 71 72
4653 2 69 71 73
4654 3 69 71 74
4655 3 69 71 152
4656 2 69 71 169
4657 3 69 71 172
4658 4 69 71 173
4659 1 70 71 72
4660 3 70 71 73
4661 2 70 71 74
4662 3 70 71 152
4663 1 70 71 169
4664 1 70 71 172
4665 3 70 71 173
4666 1 72 71 73
4667 1 72 71 74
4668 4 72 71 152
4669 3 72 71 169
4670 2 72 71 172
4671 3 72 71 173
4672 1 73 71 74
4673 3 73 71 152
4674 4 73 71 169
4675 3 73 71 172
4676 2 73 71 173
4677 3 74 71 152
4678 3 74 71 169
4679 1 74 71 172
4680 1 74 71 173
4681 1 152 71 169
4682 2 152 71 172
4683 1 152 71 173
4684 1 169 71 172
4685 2 169 71 173
4686 1 172 71 173
4687 1 470 72 471
4688 2 470 72 474
4689 1 470 72 491
4690 1 470 72 69
4691 2 470 72 70
4692 3 470 72 71
4693 3 470 72 73
4694 4 470 72 74
4695 1 470 72 89
4696 3 470 72 91
4697 3 470 72 93
4698 1 471 72 474
4699 2 471 72 491
4700 1 471 72 69
4701 3 471 72 70
4702 2 471 72 71
4703 1 471 72 73
4704 3 471 72 74
4705 3 471 72 89
4706 4 471 72 91
4707 3 471 72 93
4708 1 474 72 491
4709 3 474 72 69
4710 4 474 72 70
4711 3 474 72 71
4712 1 474 72 73
4713 2 474 72 74
4714 3 474 72 89
4715 3 474 72 91
4716 1 474 72 93
4717 3 491 72 69
4718 3 491 72 70
4719 4 491 72 71
4720 3 491 72 73
4721 3 491 72 74
4722 1 491 72 89
4723 2 491 72 91
4724 1 491 72 93
4725 1 69 72 70
4726 1 69 72 71
4727 2 69 72 73
4728 3 69 72 74
4729 2 69 72 89
4730 3 69 72 91
4731 4 69 72 93
4732 1 70 72 71
4733 3 70 72 73
4734 2 70 72 74
4735 1 70 72 89
4736 1 70 72 91
4737 3 70 72 93
4738 1 71 72 73
4739 1 71 72 74
4740 3 71 72 89
4741 2 71 72 91
4742 3 71 72 93
4743 1 73 72 74
4744 4 73 72 89
4745 3 73 72 91
4746 2 73 72 93
4747 3 74 72 89
4748 1 74 72 91
4749 1 74 72 93
4750 1 89 72 91
4751 2 89 72 93
4752 1 91 72 93
4753 1 454 73 471
4754 2 454 73 474
4755 1 454 73 475
4756 1 454 73 52
4757 2 454 73 54
4758 1 454 73 56
4759 3 454 73 71
4760 3 454 73 72
4761 4 454 73 74
4762 3 454 73 75
4763 3 454 73 76
4764 1 471 73 474
4765 2 471 73 475
4766 1 471 73 52
4767 3 471 73 54
4768 3 471 73 56
4769 2 471 73 71
4770 1 471 73 72
4771 3 471 73 74
4772 4 471 73 75
4773 3 471 73 76
4774 1 474 73 475
4775 3 474 73 52
4776 4 474 73 54
4777 3 474 73 56
4778 3 474 73 71
4779 1 474 73 72
4780 2 474 73 74
4781 3 474 73 75
4782 1 474 73 76
4783 3 475 73 52
4784 3 475 73 54
4785 1 475 73 56
4786 4 475 73 71
4787 3 475 73 72
4788 3 475 73 74
4789 2 475 73 75
4790 1 475 73 76
4791 1 52 73 54
4792 2 52 73 56
4793 1 52 73 71
4794 2 52 73 72
4795 3 52 73 74
4796 3 52 73 75
4797 4 52 73 76
4798 1 54 73 56
4799 1 54 73 71
4800 3 54 73 72
4801 2 54 73 74
4802 1 54 73 75
4803 3 54 73 76
4804 3 56 73 71
4805 4 56 73 72
4806 3 56 73 74
4807 1 56 73 75
4808 2 56 73 76
4809 1 71 73 72
4810 1 71 73 74
4811 2 71 73 75
4812 3 71 73 76
4813 1 72 73 74
4814 3 72 73 75
4815 2 72 73 76
4816 1 74 73 75
4817 1 74 73 76
4818 1 75 73 76
4819 1 71 74 72
4820 1 71 74 73
4821 2 71 74 75
4822 3 71 74 76
4823 2 71 74 91
4824 3 71 74 93
4825 4 71 74 95
4826 1 71 74 172
4827 1 71 74 173
4828 3 71 74 176
4829 3 71 74 193
4830 1 72 74 73
4831 3 72 74 75
4832 2 72 74 76
4833 1 72 74 91
4834 1 72 74 93
4835 3 72 74 95
4836 2 72 74 172
4837 3 72 74 173
4838 4 72 74 176
4839 3 72 74 193
4840 1 73 74 75
4841 1 73 74 76
4842 3 73 74 91
4843 2 73 74 93
4844 3 73 74 95
4845 3 73 74 172
4846 2 73 74 173
4847 3 73 74 176
4848 4 73 74 193
4849 1 75 74 76
4850 4 75 74 91
4851 3 75 74 93
4852 2 75 74 95
4853 3 75 74 172
4854 1 75 74 173
4855 1 75 74 176
4856 3 75 74 193
4857 3 76 74 91
4858 1 76 74 93
4859 1 76 74 95
4860 4 76 74 172
4861 3 76 74 173
4862 2 76 74 176
4863 3 76 74 193
4864 1 91 74 93
4865 2 91 74 95
4866 1 91 74 172
4867 3 91 74 173
4868 3 91 74 176
4869 1 91 74 193
4870 1 93 74 95
4871 3 93 74 172
4872 4 93 74 173
4873 3 93 74 176
4874 2 93 74 193
4875 3 95 74 172
4876 3 95 74 173
4877 1 95 74 176
4878 1 95 74 193
4879 1 172 74 173
4880 2 172 74 176
4881 1 172 74 193
4882 1 173 74 176
4883 2 173 74 193
4884 1 176 74 193
4885 1 54 75 56
4886 2 54 75 58
4887 1 54 75 73
4888 2 54 75 74
4889 3 54 75 76
4890 3 54 75 77
4891 4 54 75 78
4892 1 54 75 156
4893 1 54 75 173
4894 3 54 75 176
4895 3 54 75 177
4896 1 56 75 58
4897 1 56 75 73
4898 3 56 75 74
4899 2 56 75 76
4900 1 56 75 77
4901 3 56 75 78
4902 2 56 75 156
4903 3 56 75 173
4904 4 56 75 176
4905 3 56 75 177
4906 3 58 75 73
4907 4 58 75 74
4908 3 58 75 76
4909 1 58 75 77
4910 2 58 75 78
4911 1 58 75 156
4912 3 58 75 173
4913 3 58 75 176
4914 1 58 75 177
4915 1 73 75 74
4916 1 73 75 76
4917 2 73 75 77
4918 3 73 75 78
4919 3 73 75 156
4920 2 73 75 173
4921 3 73 75 176
4922 4 73 75 177
4923 1 74 75 76
4924 3 74 75 77
4925 2 74 75 78
4926 3 74 75 156
4927 1 74 75 173
4928 1 74 75 176
4929 3 74 75 177
4930 1 76 75 77
4931 1 76 75 78
4932 4 76 75 156
4933 3 76 75 173
4934 2 76 75 176
4935 3 76 75 177
4936 1 77 75 78
4937 3 77 75 156
4938 4 77 75 173
4939 3 77 75 176
4940 2 77 75 177
4941 3 78 75 156
4942 3 78 75 173
4943 1 78 75 176
4944 1 78 75 177
4945 1 156 75 173
4946 2 156 75 176
4947 1 156 75 177
4948 1 173 75 176
4949 2 173 75 177
4950 1 176 75 177
4951 1 474 76 475
4952 2 474 76 478
4953 1 474 76 495
4954 1 474 76 73
4955 2 474 76 74
4956 3 474 76 75
4957 3 474 76 77
4958 4 474 76 78
4959 1 474 76 93
4960 3 474 76 95
4961 3 474 76 97
4962 1 475 76 478
4963 2 475 76 495
4964 1 475 76 73
4965 3 475 76 74
4966 2 475 76 75
4967 1 475 76 77
4968 3 475 76 78
4969 3 475 76 93
4970 4 475 76 95
4971 3 475 76 97
4972 1 478 76 495
4973 3 478 76 73
4974 4 478 76 74
4975 3 478 76 75
4976 1 478 76 77
4977 2 478 76 78
4978 3 478 76 93
4979 3 478 76 95
4980 1 478 76 97
4981 3 495 76 73
4982 3 495 76 74
4983 4 495 76 75
4984 3 495 76 77
4985 3 495 76 78
4986 1 495 76 93
4987 2 495 76 95
4988 1 495 76 97
4989 1 73 76 74
4990 1 73 76 75
4991 2 73 76 77
4992 3 73 76 78
4993 2 73 76 93
4994 3 73 76 95
4995 4 73 76 97
4996 1 74 76 75
4997 3 74 76 77
4998 2 74 76 78
4999 1 74 76 93
5000 1 74 76 95
5001 3 74 76 97
5002 1 75 76 77
5003 1 75 76 78
5004 3 75 76 93
5005 2 75 76 95
5006 3 75 76 97
5007 1 77 76 78
5008 4 77 76 93
5009 3 77 76 95
5010 2 77 76 97
5011 3 78 76 93
5012 1 78 76 95
5013 1 78 76 97
5014 1 93 76 95
5015 2 93 76 97
5016 1 95 76 97
5017 1 458 77 475
5018 2 458 77 478
5019 1 458 77 479
5020 1 458 77 56
5021 2 458 77 58
5022 1 458 77 60
5023 3 458 77 75
5024 3 458 77 76
5025 4 458 77 78
5026 3 458 77 79
5027 3 458 77 80
5028 1 475 77 478
5029 2 475 77 479
5030 1 475 77 56
5031 3 475 77 58
5032 3 475 77 60
5033 2 475 77 75
5034 1 475 77 76
5035 3 475 77 78
5036 4 475 77 79
5037 3 475 77 80
5038 1 478 77 479
5039 3 478 77 56
5040 4 478 77 58
5041 3 478 77 60
5042 3 478 77 75
5043 1 478 77 76
5044 2 478 77 78
5045 3 478 77 79
5046 1 478 77 80
5047 3 479 77 56
5048 3 479 77 58
5049 1 479 77 60
5050 4 479 77 75
5051 3 479 77 76
5052 3 479 77 78
5053 2 479 77 79
5054 1 479 77 80
5055 1 56 77 58
5056 2 56 77 60
5057 1 56 77 75
5058 2 56 77 76
5059 3 56 77 78
5060 3 56 77 79
5061 4 56 77 80
5062 1 58 77 60
5063 1 58 77 75
5064 3 58 77 76
5065 2 58 77 78
5066 1 58 77 79
5067 3 58 77 80
5068 3 60 77 75
5069 4 60 77 76
5070 3 60 77 78
5071 1 60 77 79
5072 2 60 77 80
5073 1 75 77 76
5074 1 75 77 78
5075 2 75 77 79
5076 3 75 77 80
5077 1 76 77 78
5078 3 76 77 79
5079 2 76 77 80
5080 1 78 77 79
5081 1 78 77 80
5082 1 79 77 80
5083 1 75 78 76
5084 1 75 78 77
5085 2 75 78 79
5086 3 75 78 80
5087 2 75 78 95
5088 3 75 78 97
5089 4 75 78 99
5090 1 75 78 176
5091 1 75 78 177
5092 3 75 78 180
5093 3 75 78 197
5094 1 76 78 77
5095 3 76 78 79
5096 2 76 78 80
5097 1 76 78 95
5098 1 76 78 97
5099 3 76 78 99
5100 2 76 78 176
5101 3 76 78 177
5102 4 76 78 180
5103 3 76 78 197
5104 1 77 78 79
5105 1 77 78 80
5106 3 77 78 95
5107 2 77 78 97
5108 3 77 78 99
5109 3 77 78 176
5110 2 77 78 177
5111 3 77 78 180
5112 4 77 78 197
5113 1 79 78 80
5114 4 79 78 95
5115 3 79 78 97
5116 2 79 78 99
5117 3 79 78 176
5118 1 79 78 177
5119 1 79 78 180
5120 3 79 78 197
5121 3 80 78 95
5122 1 80 78 97
5123 1 80 78 99
5124 4 80 78 176
5125 3 80 78 177
5126 2 80 78 180
5127 3 80 78 197
5128 1 95 78 97
5129 2 95 78 99
5130 1 95 78 176
5131 3 95 78 177
5132 3 95 78 180
5133 1 95 78 197
5134 1 97 78 99
5135 3 97 78 176
5136 4 97 78 177
5137 3 97 78 180
5138 2 97 78 197
5139 3 99 78 176
5140 3 99 78 177
5141 1 99 78 180
5142 1 99 78 197
5143 1 176 78 177
5144 2 176 78 180
5145 1 176 78 197
5146 1 177 78 180
5147 2 177 78 197
5148 1 180 78 197
5149 1 58 79 60
5150 2 58 79 42
5151 1 58 79 77
5152 2 58 79 78
5153 3 58 79 80
5154 3 58 79 61
5155 4 58 79 62
5156 1 58 79 160
5157 1 58 79 177
5158 3 58 79 180
5159 3 58 79 161
5160 1 60 79 42
5161 1 60 79 77
5162 3 60 79 78
5163 2 60 79 80
5164 1 60 79 61
5165 3 60 79 62
5166 2 60 79 160
5167 3 60 79 177
5168 4 60 79 180
5169 3 60 79 161
5170 3 42 79 77
5171 4 42 79 78
5172 3 42 79 80
5173 1 42 79 61
5174 2 42 79 62
5175 1 42 79 160
5176 3 42 79 177
5177 3 42 79 180
5178 1 42 79 161
5179 1 77 79 78
5180 1 77 79 80
5181 2 77 79 61
5182 3 77 79 62
5183 3 77 79 160
5184 2 77 79 177
5185 3 77 79 180
5186 4 77 79 161
5187 1 78 79 80
5188 3 78 79 61
5189 2 78 79 62
5190 3 78 79 160
5191 1 78 79 177
5192 1 78 79 180
5193 3 78 79 161
5194 1 80 79 61
5195 1 80 79 62
5196 4 80 79 160
5197 3 80 79 177
5198 2 80 79 180
5199 3 80 79 161
5200 1 61 79 62
5201 3 61 79 160
5202 4 61 79 177
5203 3 61 79 180
5204 2 61 79 161
5205 3 62 79 160
5206 3 62 79 177
5207 1 62 79 180
5208 1 62 79 161
5209 1 160 79 177
5210 2 160 79 180
5211 1 160 79 161
5212 1 177 79 180
5213 2 177 79 161
5214 1 180 79 161
5215 1 478 80 479
5216 2 478 80 462
5217 1 478 80 499
5218 1 478 80 77
5219 2 478 80 78
5220 3 478 80 79
5221 3 478 80 61
5222 4 478 80 62
5223 1 478 80 97
5224 3 478 80 99
5225 3 478 80 81
5226 1 479 80 462
5227 2 479 80 499
5228 1 479 80 77
5229 3 479 80 78
5230 2 479 80 79
5231 1 479 80 61
5232 3 479 80 62
5233 3 479 80 97
5234 4 479 80 99
5235 3 479 80 81
5236 1 462 80 499
5237 3 462 80 77
5238 4 462 80 78
5239 3 462 80 79
5240 1 462 80 61
5241 2 462 80 62
5242 3 462 80 97
5243 3 462 80 99
5244 1 462 80 81
5245 3 499 80 77
5246 3 499 80 78
5247 4 499 80 79
5248 3 499 80 61
5249 3 499 80 62
5250 1 499 80 97
5251 2 499 80 99
5252 1 499 80 81
5253 1 77 80 78
5254 1 77 80 79
5255 2 77 80 61
5256 3 77 80 62
5257 2 77 80 97
5258 3 77 80 99
5259 4 77 80 81
5260 1 78 80 79
5261 3 78 80 61
5262 2 78 80 62
5263 1 78 80 97
5264 1 78 80 99
5265 3 78 80 81
5266 1 79 80 61
5267 1 79 80 62
5268 3 79 80 97
5269 2 79 80 99
5270 3 79 80 81
5271 1 61 80 62
5272 4 61 80 97
5273 3 61 80 99
5274 2 61 80 81
5275 3 62 80 97
5276 1 62 80 99
5277 1 62 80 81
5278 1 97 80 99
5279 2 97 80 81
5280 1 99 80 81
5281 1 462 81 499
5282 2 462 81 482
5283 1 462 81 483
5284 1 462 81 80
5285 2 462 81 62
5286 1 462 81 64
5287 3 462 81 99
5288 3 462 81 100
5289 4 462 81 82
5290 3 462 81 83
5291 3 462 81 84
5292 1 499 81 482
5293 2 499 81 483
5294 1 499 81 80
5295 3 499 81 62
5296 3 499 81 64
5297 2 499 81 99
5298 1 499 81 100
5299 3 499 81 82
5300 4 499 81 83
5301 3 499 81 84
5302 1 482 81 483
5303 3 482 81 80
5304 4 482 81 62
5305 3 482 81 64
5306 3 482 81 99
5307 1 482 81 100
5308 2 482 81 82
5309 3 482 81 83
5310 1 482 81 84
5311 3 483 81 80
5312 3 483 81 62
5313 1 483 81 64
5314 4 483 81 99
5315 3 483 81 100
5316 3 483 81 82
5317 2 483 81 83
5318 1 483 81 84
5319 1 80 81 62
5320 2 80 81 64
5321 1 80 81 99
5322 2 80 81 100
5323 3 80 81 82
5324 3 80 81 83
5325 4 80 81 84
5326 1 62 81 64
5327 1 62 81 99
5328 3 62 81 100
5329 2 62 81 82
5330 1 62 81 83
5331 3 62 81 84
5332 3 64 81 99
5333 4 64 81 100
5334 3 64 81 82
5335 1 64 81 83
5336 2 64 81 84
5337 1 99 81 100
5338 1 99 81 82
5339 2 99 81 83
5340 3 99 81 84
5341 1 100 81 82
5342 3 100 81 83
5343 2 100 81 84
5344 1 82 81 83
5345 1 82 81 84
5346 1 83 81 84
5347 1 99 82 100
5348 1 99 82 81
5349 2 99 82 83
5350 3 99 82 84
5351 2 99 82 19
5352 3 99 82 1
5353 4 99 82 3
5354 1 99 82 200
5355 1 99 82 181
5356 3 99 82 184
5357 3 99 82 101
5358 1 100 82 81
5359 3 100 82 83
5360 2 100 82 84
5361 1 100 82 19
5362 1 100 82 1
5363 3 100 82 3
5364 2 100 82 200
5365 3 100 82 181
5366 4 100 82 184
5367 3 100 82 101
5368 1 81 82 83
5369 1 81 82 84
5370 3 81 82 19
5371 2 81 82 1
5372 3 81 82 3
5373 3 81 82 200
5374 2 81 82 181
5375 3 81 82 184
5376 4 81 82 101
5377 1 83 82 84
5378 4 83 82 19
5379 3 83 82 1
5380 2 83 82 3
5381 3 83 82 200
5382 1 83 82 181
5383 1 83 82 184
5384 3 83 82 101
5385 3 84 82 19
5386 1 84 82 1
5387 1 84 82 3
5388 4 84 82 200
5389 3 84 82 181
5390 2 84 82 184
5391 3 84 82 101
5392 1 19 82 1
5393 2 19 82 3
5394 1 19 82 200
5395 3 19 82 181
5396 3 19 82 184
5397 1 19 82 101
5398 1 1 82 3
5399 3 1 82 200
5400 4 1 82 181
5401 3 1 82 184
5402 2 1 82 101
5403 3 3 82 200
5404 3 3 82 181
5405 1 3 82 184
5406 1 3 82 101
5407 1 200 82 181
5408 2 200 82 184
5409 1 200 82 101
5410 1 181 82 184
5411 2 181 82 101
5412 1 184 82 101
5413 1 62 83 64
5414 2 62 83 66
5415 1 62 83 81
5416 2 62 83 82
5417 3 62 83 84
5418 3 62 83 85
5419 4 62 83 86
5420 1 62 83 164
5421 1 62 83 181
5422 3 62 83 184
5423 3 62 83 185
5424 1 64 83 66
5425 1 64 83 81
5426 3 64 83 82
5427 2 64 83 84
5428 1 64 83 85
5429 3 64 83 86
5430 2 64 83 164
5431 3 64 83 181
5432 4 64 83 184
5433 3 64 83 185
5434 3 66 83 81
5435 4 66 83 82
5436 3 66 83 84
5437 1 66 83 85
5438 2 66 83 86
5439 1 66 83 164
5440 3 66 83 181
5441 3 66 83 184
5442 1 66 83 185
5443 1 81 83 82
5444 1 81 83 84
5445 2 81 83 85
5446 3 81 83 86
5447 3 81 83 164
5448 2 81 83 181
5449 3 81 83 184
5450 4 81 83 185
5451 1 82 83 84
5452 3 82 83 85
5453 2 82 83 86
5454 3 82 83 164
5455 1 82 83 181
5456 1 82 83 184
5457 3 82 83 185
5458 1 84 83 85
5459 1 84 83 86
5460 4 84 83 164
5461 3 84 83 181
5462 2 84 83 184
5463 3 84 83 185
5464 1 85 83 86
5465 3 85 83 164
5466 4 85 83 181
5467 3 85 83 184
5468 2 85 83 185
5469 3 86 83 164
5470 3 86 83 181
5471 1 86 83 184
5472 1 86 83 185
5473 1 164 83 181
5474 2 164 83 184
5475 1 164 83 185
5476 1 181 83 184
5477 2 181 83 185
5478 1 184 83 185
5479 1 482 84 483
5480 2 482 84 486
5481 1 482 84 403
5482 1 482 84 81
5483 2 482 84 82
5484 3 482 84 83
5485 3 482 84 85
5486 4 482 84 86
5487 1 482 84 1
5488 3 482 84 3
5489 3 482 84 5
5490 1 483 84 486
5491 2 483 84 403
5492 1 483 84 81
5493 3 483 84 82
5494 2 483 84 83
5495 1 483 84 85
5496 3 483 84 86
5497 3 483 84 1
5498 4 483 84 3
5499 3 483 84 5
5500 1 486 84 403
5501 3 486 84 81
5502 4 486 84 82
5503 3 486 84 83
5504 1 486 84 85
5505 2 486 84 86
5506 3 486 84 1
5507 3 486 84 3
5508 1 486 84 5
5509 3 403 84 81
5510 3 403 84 82
5511 4 403 84 83
5512 3 403 84 85
5513 3 403 84 86
5514 1 403 84 1
5515 2 403 84 3
5516 1 403 84 5
5517 1 81 84 82
5518 1 81 84 83
5519 2 81 84 85
5520 3 81 84 86
5521 2 81 84 1
5522 3 81 84 3
5523 4 81 84 5
5524 1 82 84 83
5525 3 82 84 85
5526 2 82 84 86
5527 1 82 84 1
5528 1 82 84 3
5529 3 82 84 5
5530 1 83 84 85
5531 1 83 84 86
5532 3 83 84 1
5533 2 83 84 3
5534 3 83 84 5
5535 1 85 84 86
5536 4 85 84 1
5537 3 85 84 3
5538 2 85 84 5
5539 3 86 84 1
5540 1 86 84 3
5541 1 86 84 5
5542 1 1 84 3
5543 2 1 84 5
5544 1 3 84 5
5545 1 466 85 483
5546 2 466 85 486
5547 1 466 85 487
5548 1 466 85 64
5549 2 466 85 66
5550 1 466 85 68
5551 3 466 85 83
5552 3 466 85 84
5553 4 466 85 86
5554 3 466 85 87
5555 3 466 85 88
5556 1 483 85 486
5557 2 483 85 487
5558 1 483 85 64
5559 3 483 85 66
5560 3 483 85 68
5561 2 483 85 83
5562 1 483 85 84
5563 3 483 85 86
5564 4 483 85 87
5565 3 483 85 88
5566 1 486 85 487
5567 3 486 85 64
5568 4 486 85 66
5569 3 486 85 68
5570 3 486 85 83
5571 1 486 85 84
5572 2 486 85 86
5573 3 486 85 87
5574 1 486 85 88
5575 3 487 85 64
5576 3 487 85 66
5577 1 487 85 68
5578 4 487 85 83
5579 3 487 85 84
5580 3 487 85 86
5581 2 487 85 87
5582 1 487 85 88
5583 1 64 85 66
5584 2 64 85 68
5585 1 64 85 83
5586 2 64 85 84
5587 3 64 85 86
5588 3 64 85 87
5589 4 64 85 88
5590 1 66 85 68
5591 1 66 85 83
5592 3 66 85 84
5593 2 66 85 86
5594 1 66 85 87
5595 3 66 85 88
5596 3 68 85 83
5597 4 68 85 84
5598 3 68 85 86
5599 1 68 85 87
5600 2 68 85 88
5601 1 83 85 84
5602 1 83 85 86
5603 2 83 85 87
5604 3 83 85 88
5605 1 84 85 86
5606 3 84 85 87
5607 2 84 85 88
5608 1 86 85 87
5609 1 86 85 88
5610 1 87 85 88
5611 1 83 86 84
5612 1 83 86 85
5613 2 83 86 87
5614 3 83 86 88
5615 2 83 86 3
5616 3 83 86 5
5617 4 83 86 7
5618 1 83 86 184
5619 1 83 86 185
5620 3 83 86 188
5621 3 83 86 105
5622 1 84 86 85
5623 3 84 86 87
5624 2 84 86 88
5625 1 84 86 3
5626 1 84 86 5
5627 3 84 86 7
5628 2 84 86 184
5629 3 84 86 185
5630 4 84 86 188
5631 3 84 86 105
5632 1 85 86 87
5633 1 85 86 88
5634 3 85 86 3
5635 2 85 86 5
5636 3 85 86 7
5637 3 85 86 184
5638 2 85 86 185
5639 3 85 86 188
5640 4 85 86 105
5641 1 87 86 88
5642 4 87 86 3
5643 3 87 86 5
5644 2 87 86 7
5645 3 87 86 184
5646 1 87 86 185
5647 1 87 86 188
5648 3 87 86 105
5649 3 88 86 3
5650 1 88 86 5
5651 1 88 86 7
5652 4 88 86 184
5653 3 88 86 185
5654 2 88 86 188
5655 3 88 86 105
5656 1 3 86 5
5657 2 3 86 7
5658 1 3 86 184
5659 3 3 86 185
5660 3 3 86 188
5661 1 3 86 105
5662 1 5 86 7
5663 3 5 86 184
5664 4 5 86 185
5665 3 5 86 188
5666 2 5 86 105
5667 3 7 86 184
5668 3 7 86 185
5669 1 7 86 188
5670 1 7 86 105
5671 1 184 86 185
5672 2 184 86 188
5673 1 184 86 105
5674 1 185 86 188
5675 2 185 86 105
5676 1 188 86 105
5677 1 66 87 68
5678 2 66 87 70
5679 1 66 87 85
5680 2 66 87 86
5681 3 66 87 88
5682 3 66 87 89
5683 4 66 87 90
5684 1 66 87 168
5685 1 66 87 185
5686 3 66 87 188
5687 3 66 87 189
5688 1 68 87 70
5689 1 68 87 85
5690 3 68 87 86
5691 2 68 87 88
5692 1 68 87 89
5693 3 68 87 90
5694 2 68 87 168
5695 3 68 87 185
5696 4 68 87 188
5697 3 68 87 189
5698 3 70 87 85
5699 4 70 87 86
5700 3 70 87 88
5701 1 70 87 89
5702 2 70 87 90
5703 1 70 87 168
5704 3 70 87 185
5705 3 70 87 188
5706 1 70 87 189
5707 1 85 87 86
5708 1 85 87 88
5709 2 85 87 89
5710 3 85 87 90
5711 3 85 87 168
5712 2 85 87 185
5713 3 85 87 188
5714 4 85 87 189
5715 1 86 87 88
5716 3 86 87 89
5717 2 86 87 90
5718 3 86 87 168
5719 1 86 87 185
5720 1 86 87 188
5721 3 86 87 189
5722 1 88 87 89
5723 1 88 87 90
5724 4 88 87 168
5725 3 88 87 185
5726 2 88 87 188
5727 3 88 87 189
5728 1 89 87 90
5729 3 89 87 168
5730 4 89 87 185
5731 3 89 87 188
5732 2 89 87 189
5733 3 90 87 168
5734 3 90 87 185
5735 1 90 87 188
5736 1 90 87 189
5737 1 168 87 185
5738 2 168 87 188
5739 1 168 87 189
5740 1 185 87 188
5741 2 185 87 189
5742 1 188 87 189
5743 1 486 88 487
5744 2 486 88 490
5745 1 486 88 407
5746 1 486 88 85
5747 2 486 88 86
5748 3 486 88 87
5749 3 486 88 89
5750 4 486 88 90
5751 1 486 88 5
5752 3 486 88 7
5753 3 486 88 9
5754 1 487 88 490
5755 2 487 88 407
5756 1 487 88 85
5757 3 487 88 86
5758 2 487 88 87
5759 1 487 88 89
5760 3 487 88 90
5761 3 487 88 5
5762 4 487 88 7
5763 3 487 88 9
5764 1 490 88 407
5765 3 490 88 85
5766 4 490 88 86
5767 3 490 88 87
5768 1 490 88 89
5769 2 490 88 90
5770 3 490 88 5
5771 3 490 88 7
5772 1 490 88 9
5773 3 407 88 85
5774 3 407 88 86
5775 4 407 88 87
5776 3 407 88 89
5777 3 407 88 90
5778 1 407 88 5
5779 2 407 88 7
5780 1 407 88 9
5781 1 85 88 86
5782 1 85 88 87
5783 2 85 88 89
5784 3 85 88 90
5785 2 85 88 5
5786 3 85 88 7
5787 4 85 88 9
5788 1 86 88 87
5789 3 86 88 89
5790 2 86 88 90
5791 1 86 88 5
5792 1 86 88 7
5793 3 86 88 9
5794 1 87 88 89
5795 1 87 88 90
5796 3 87 88 5
5797 2 87 88 7
5798 3 87 88 9
5799 1 89 88 90
5800 4 89 88 5
5801 3 89 88 7
5802 2 89 88 9
5803 3 90 88 5
5804 1 90 88 7
5805 1 90 88 9
5806 1 5 88 7
5807 2 5 88 9
5808 1 7 88 9
5809 1 470 89 487
5810 2 470 89 490
5811 1 470 89 491
5812 1 470 89 68
5813 2 470 89 70
5814 1 470 89 72
5815 3 470 89 87
5816 3 470 89 88
5817 4 470 89 90
5818 3 470 89 91
5819 3 470 89 92
5820 1 487 89 490
5821 2 487 89 491
5822 1 487 89 68
5823 3 487 89 70
5824 3 487 89 72
5825 2 487 89 87
5826 1 487 89 88
5827 3 487 89 90
5828 4 487 89 91
5829 3 487 89 92
5830 1 490 89 491
5831 3 490 89 68
5832 4 490 89 70
5833 3 490 89 72
5834 3 490 89 87
5835 1 490 89 88
5836 2 490 89 90
5837 3 490 89 91
5838 1 490 89 92
5839 3 491 89 68
5840 3 491 89 70
5841 1 491 89 72
5842 4 491 89 87
5843 3 491 89 88
5844 3 491 89 90
5845 2 491 89 91
5846 1 491 89 92
5847 1 68 89 70
5848 2 68 89 72
5849 1 68 89 87
5850 2 68 89 88
5851 3 68 89 90
5852 3 68 89 91
5853 4 68 89 92
5854 1 70 89 72
5855 1 70 89 87
5856 3 70 89 88
5857 2 70 89 90
5858 1 70 89 91
5859 3 70 89 92
5860 3 72 89 87
5861 4 72 89 88
5862 3 72 89 90
5863 1 72 89 91
5864 2 72 89 92
5865 1 87 89 88
5866 1 87 89 90
5867 2 87 89 91
5868 3 87 89 92
5869 1 88 89 90
5870 3 88 89 91
5871 2 88 89 92
5872 1 90 89 91
5873 1 90 89 92
5874 1 91 89 92
5875 1 87 90 88
5876 1 87 90 89
5877 2 87 90 91
5878 3 87 90 92
5879 2 87 90 7
5880 3 87 90 9
5881 4 87 90 11
5882 1 87 90 188
5883 1 87 90 189
5884 3 87 90 192
5885 3 87 90 109
5886 1 88 90 89
5887 3 88 90 91
5888 2 88 90 92
5889 1 88 90 7
5890 1 88 90 9
5891 3 88 90 11
5892 2 88 90 188
5893 3 88 90 189
5894 4 88 90 192
5895 3 88 90 109
5896 1 89 90 91
5897 1 89 90 92
5898 3 89 90 7
5899 2 89 90 9
5900 3 89 90 11
5901 3 89 90 188
5902 2 89 90 189
5903 3 89 90 192
5904 4 89 90 109
5905 1 91 90 92
5906 4 91 90 7
5907 3 91 90 9
5908 2 91 90 11
5909 3 91 90 188
5910 1 91 90 189
5911 1 91 90 192
5912 3 91 90 109
5913 3 92 90 7
5914 1 92 90 9
5915 1 92 90 11
5916 4 92 90 188
5917 3 92 90 189
5918 2 92 90 192
5919 3 92 90 109
5920 1 7 90 9
5921 2 7 90 11
5922 1 7 90 188
5923 3 7 90 189
5924 3 7 90 192
5925 1 7 90 109
5926 1 9 90 11
5927 3 9 90 188
5928 4 9 90 189
5929 3 9 90 192
5930 2 9 90 109
5931 3 11 90 188
5932 3 11 90 189
5933 1 11 90 192
5934 1 11 90 109
5935 1 188 90 189
5936 2 188 90 192
5937 1 188 90 109
5938 1 189 90 192
5939 2 189 90 109
5940 1 192 90 109
5941 1 70 91 72
5942 2 70 91 74
5943 1 70 91 89
5944 2 70 91 90
5945 3 70 91 92
5946 3 70 91 93
5947 4 70 91 94
5948 1 70 91 172
5949 1 70 91 189
5950 3 70 91 192
5951 3 70 91 193
5952 1 72 91 74
5953 1 72 91 89
5954 3 72 91 90
5955 2 72 91 92
5956 1 72 91 93
5957 3 72 91 94
5958 2 72 91 172
5959 3 72 91 189
5960 4 72 91 192
5961 3 72 91 193
5962 3 74 91 89
5963 4 74 91 90
5964 3 74 91 92
5965 1 74 91 93
5966 2 74 91 94
5967 1 74 91 172
5968 3 74 91 189
5969 3 74 91 192
5970 1 74 91 193
5971 1 89 91 90
5972 1 89 91 92
5973 2 89 91 93
5974 3 89 91 94
5975 3 89 91 172
5976 2 89 91 189
5977 3 89 91 192
5978 4 89 91 193
5979 1 90 91 92
5980 3 90 91 93
5981 2 90 91 94
5982 3 90 91 172
5983 1 90 91 189
5984 1 90 91 192
5985 3 90 91 193
5986 1 92 91 93
5987 1 92 91 94
5988 4 92 91 172
5989 3 92 91 189
5990 2 92 91 192
5991 3 92 91 193
5992 1 93 91 94
5993 3 93 91 172
5994 4 93 91 189
5995 3 93 91 192
5996 2 93 91 193
5997 3 94 91 172
5998 3 94 91 189
5999 1 94 91 192
6000 1 94 91 193
6001 1 172 91 189
6002 2 172 91 192
6003 1 172 91 193
6004 1 189 91 192
6005 2 189 91 193
6006 1 192 91 193
6007 1 490 92 491
6008 2 490 92 494
6009 1 490 92 411
6010 1 490 92 89
6011 2 490 92 90
6012 3 490 92 91
6013 3 490 92 93
6014 4 490 92 94
6015 1 490 92 9
6016 3 490 92 11
6017 3 490 92 13
6018 1 491 92 494
6019 2 491 92 411
6020 1 491 92 89
6021 3 491 92 90
6022 2 491 92 91
6023 1 491 92 93
6024 3 491 92 94
6025 3 491 92 9
6026 4 491 92 11
6027 3 491 92 13
6028 1 494 92 411
6029 3 494 92 89
6030 4 494 92 90
6031 3 494 92 91
6032 1 494 92 93
6033 2 494 92 94
6034 3 494 92 9
6035 3 494 92 11
6036 1 494 92 13
6037 3 411 92 89
6038 3 411 92 90
6039 4 411 92 91
6040 3 411 92 93
6041 3 411 92 94
6042 1 411 92 9
6043 2 411 92 11
6044 1 411 92 13
6045 1 89 92 90
6046 1 89 92 91
6047 2 89 92 93
6048 3 89 92 94
6049 2 89 92 9
6050 3 89 92 11
6051 4 89 92 13
6052 1 90 92 91
6053 3 90 92 93
6054 2 90 92 94
6055 1 90 92 9
6056 1 90 92 11
6057 3 90 92 13
6058 1 91 92 93
6059 1 91 92 94
6060 3 91 92 9
6061 2 91 92 11
6062 3 91 92 13
6063 1 93 92 94
6064 4 93 92 9
6065 3 93 92 11
6066 2 93 92 13
6067 3 94 92 9
6068 1 94 92 11
6069 1 94 92 13
6070 1 9 92 11
6071 2 9 92 13
6072 1 11 92 13
6073 1 474 93 491
6074 2 474 93 494
6075 1 474 93 495
6076 1 474 93 72
6077 2 474 93 74
6078 1 474 93 76
6079 3 474 93 91
6080 3 474 93 92
6081 4 474 93 94
6082 3 474 93 95
6083 3 474 93 96
6084 1 491 93 494
6085 2 491 93 495
6086 1 491 93 72
6087 3 491 93 74
6088 3 491 93 76
6089 2 491 93 91
6090 1 491 93 92
6091 3 491 93 94
6092 4 491 93 95
6093 3 491 93 96
6094 1 494 93 495
6095 3 494 93 72
6096 4 494 93 74
6097 3 494 93 76
6098 3 494 93 91
6099 1 494 93 92
6100 2 494 93 94
6101 3 494 93 95
6102 1 494 93 96
6103 3 495 93 72
6104 3 495 93 74
6105 1 495 93 76
6106 4 495 93 91
6107 3 495 93 92
6108 3 495 93 94
6109 2 495 93 95
6110 1 495 93 96
6111 1 72 93 74
6112 2 72 93 76
6113 1 72 93 91
6114 2 72 93 92
6115 3 72 93 94
6116 3 72 93 95
6117 4 72 93 96
6118 1 74 93 76
6119 1 74 93 91
6120 3 74 93 92
6121 2 74 93 94
6122 1 74 93 95
6123 3 74 93 96
6124 3 76 93 91
6125 4 76 93 92
6126 3 76 93 94
6127 1 76 93 95
6128 2 76 93 96
6129 1 91 93 92
6130 1 91 93 94
6131 2 91 93 95
6132 3 91 93 96
6133 1 92 93 94
6134 3 92 93 95
6135 2 92 93 96
6136 1 94 93 95
6137 1 94 93 96
6138 1 95 93 96
6139 1 91 94 92
6140 1 91 94 93
6141 2 91 94 95
6142 3 91 94 96
6143 2 91 94 11
6144 3 91 94 13
6145 4 91 94 15
6146 1 91 94 192
6147 1 91 94 193
6148 3 91 94 196
6149 3 91 94 113
6150 1 92 94 93
6151 3 92 94 95
6152 2 92 94 96
6153 1 92 94 11
6154 1 92 94 13
6155 3 92 94 15
6156 2 92 94 192
6157 3 92 94 193
6158 4 92 94 196
6159 3 92 94 113
6160 1 93 94 95
6161 1 93 94 96
6162 3 93 94 11
6163 2 93 94 13
6164 3 93 94 15
6165 3 93 94 192
6166 2 93 94 193
6167 3 93 94 196
6168 4 93 94 113
6169 1 95 94 96
6170 4 95 94 11
6171 3 95 94 13
6172 2 95 94 15
6173 3 95 94 192
6174 1 95 94 193
6175 1 95 94 196
6176 3 95 94 113
6177 3 96 94 11
6178 1 96 94 13
6179 1 96 94 15
6180 4 96 94 192
6181 3 96 94 193
6182 2 96 94 196
6183 3 96 94 113
6184 1 11 94 13
6185 2 11 94 15
6186 1 11 94 192
6187 3 11 94 193
6188 3 11 94 196
6189 1 11 94 113
6190 1 13 94 15
6191 3 13 94 192
6192 4 13 94 193
6193 3 13 94 196
6194 2 13 94 113
6195 3 15 94 192
6196 3 15 94 193
6197 1 15 94 196
6198 1 15 94 113
6199 1 192 94 193
6200 2 192 94 196
6201 1 192 94 113
6202 1 193 94 196
6203 2 193 94 113
6204 1 196 94 113
6205 1 74 95 76
6206 2 74 95 78
6207 1 74 95 93
6208 2 74 95 94
6209 3 74 95 96
6210 3 74 95 97
6211 4 74 95 98
6212 1 74 95 176
6213 1 74 95 193
6214 3 74 95 196
6215 3 74 95 197
6216 1 76 95 78
6217 1 76 95 93
6218 3 76 95 94
6219 2 76 95 96
6220 1 76 95 97
6221 3 76 95 98
6222 2 76 95 176
6223 3 76 95 193
6224 4 76 95 196
6225 3 76 95 197
6226 3 78 95 93
6227 4 78 95 94
6228 3 78 95 96
6229 1 78 95 97
6230 2 78 95 98
6231 1 78 95 176
6232 3 78 95 193
6233 3 78 95 196
6234 1 78 95 197
6235 1 93 95 94
6236 1 93 95 96
6237 2 93 95 97
6238 3 93 95 98
6239 3 93 95 176
6240 2 93 95 193
6241 3 93 95 196
6242 4 93 95 197
6243 1 94 95 96
6244 3 94 95 97
6245 2 94 95 98
6246 3 94 95 176
6247 1 94 95 193
6248 1 94 95 196
6249 3 94 95 197
6250 1 96 95 97
6251 1 96 95 98
6252 4 96 95 176
6253 3 96 95 193
6254 2 96 95 196
6255 3 96 95 197
6256 1 97 95 98
6257 3 97 95 176
6258 4 97 95 193
6259 3 97 95 196
6260 2 97 95 197
6261 3 98 95 176
6262 3 98 95 193
6263 1 98 95 196
6264 1 98 95 197
6265 1 176 95 193
6266 2 176 95 196
6267 1 176 95 197
6268 1 193 95 196
6269 2 193 95 197
6270 1 196 95 197
6271 1 494 96 495
6272 2 494 96 498
6273 1 494 96 415
6274 1 494 96 93
6275 2 494 96 94
6276 3 494 96 95
6277 3 494 96 97
6278 4 494 96 98
6279 1 494 96 13
6280 3 494 96 15
6281 3 494 96 17
6282 1 495 96 498
6283 2 495 96 415
6284 1 495 96 93
6285 3 495 96 94
6286 2 495 96 95
6287 1 495 96 97
6288 3 495 96 98
6289 3 495 96 13
6290 4 495 96 15
6291 3 495 96 17
6292 1 498 96 415
6293 3 498 96 93
6294 4 498 96 94
6295 3 498 96 95
6296 1 498 96 97
6297 2 498 96 98
6298 3 498 96 13
6299 3 498 96 15
6300 1 498 96 17
6301 3 415 96 93
6302 3 415 96 94
6303 4 415 96 95
6304 3 415 96 97
6305 3 415 96 98
6306 1 415 96 13
6307 2 415 96 15
6308 1 415 96 17
6309 1 93 96 94
6310 1 93 96 95
6311 2 93 96 97
6312 3 93 96 98
6313 2 93 96 13
6314 3 93 96 15
6315 4 93 96 17
6316 1 94 96 95
6317 3 94 96 97
6318 2 94 96 98
6319 1 94 96 13
6320 1 94 96 15
6321 3 94 96 17
6322 1 95 96 97
6323 1 95 96 98
6324 3 95 96 13
6325 2 95 96 15
6326 3 95 96 17
6327 1 97 96 98
6328 4 97 96 13
6329 3 97 96 15
6330 2 97 96 17
6331 3 98 96 13
6332 1 98 96 15
6333 1 98 96 17
6334 1 13 96 15
6335 2 13 96 17
6336 1 15 96 17
6337 1 478 97 495
6338 2 478 97 498
6339 1 478 97 499
6340 1 478 97 76
6341 2 478 97 78
6342 1 478 97 80
6343 3 478 97 95
6344 3 478 97 96
6345 4 478 97 98
6346 3 478 97 99
6347 3 478 97 100
6348 1 495 97 498
6349 2 495 97 499
6350 1 495 97 76
6351 3 495 97 78
6352 3 495 97 80
6353 2 495 97 95
6354 1 495 97 96
6355 3 495 97 98
6356 4 495 97 99
6357 3 495 97 100
6358 1 498 97 499
6359 3 498 97 76
6360 4 498 97 78
6361 3 498 97 80
6362 3 498 97 95
6363 1 498 97 96
6364 2 498 97 98
6365 3 498 97 99
6366 1 498 97 100
6367 3 499 97 76
6368 3 499 97 78
6369 1 499 97 80
6370 4 499 97 95
6371 3 499 97 96
6372 3 499 97 98
6373 2 499 97 99
6374 1 499 97 100
6375 1 76 97 78
6376 2 76 97 80
6377 1 76 97 95
6378 2 76 97 96
6379 3 76 97 98
6380 3 76 97 99
6381 4 76 97 100
6382 1 78 97 80
6383 1 78 97 95
6384 3 78 97 96
6385 2 78 97 98
6386 1 78 97 99
6387 3 78 97 100
6388 3 80 97 95
6389 4 80 97 96
6390 3 80 97 98
6391 1 80 97 99
6392 2 80 97 100
6393 1 95 97 96
6394 1 95 97 98
6395 2 95 97 99
6396 3 95 97 100
6397 1 96 97 98
6398 3 96 97 99
6399 2 96 97 100
6400 1 98 97 99
6401 1 98 97 100
6402 1 99 97 100
6403 1 95 98 96
6404 1 95 98 97
6405 2 95 98 99
6406 3 95 98 100
6407 2 95 98 15
6408 3 95 98 17
6409 4 95 98 19
6410 1 95 98 196
6411 1 95 98 197
6412 3 95 98 200
6413 3 95 98 117
6414 1 96 98 97
6415 3 96 98 99
6416 2 96 98 100
6417 1 96 98 15
6418 1 96 98 17
6419 3 96 98 19
6420 2 96 98 196
6421 3 96 98 197
6422 4 96 98 200
6423 3 96 98 117
6424 1 97 98 99
6425 1 97 98 100
6426 3 97 98 15
6427 2 97 98 17
6428 3 97 98 19
6429 3 97 98 196
6430 2 97 98 197
6431 3 97 98 200
6432 4 97 98 117
6433 1 99 98 100
6434 4 99 98 15
6435 3 99 98 17
6436 2 99 98 19
6437 3 99 98 196
6438 1 99 98 197
6439 1 99 98 200
6440 3 99 98 117
6441 3 100 98 15
6442 1 100 98 17
6443 1 100 98 19
6444 4 100 98 196
6445 3 100 98 197
6446 2 100 98 200
6447 3 100 98 117
6448 1 15 98 17
6449 2 15 98 19
6450 1 15 98 196
6451 3 15 98 197
6452 3 15 98 200
6453 1 15 98 117
6454 1 17 98 19
6455 3 17 98 196
6456 4 17 98 197
6457 3 17 98 200
6458 2 17 98 117
6459 3 19 98 196
6460 3 19 98 197
6461 1 19 98 200
6462 1 19 98 117
6463 1 196 98 197
6464 2 196 98 200
6465 1 196 98 117
6466 1 197 98 200
6467 2 197 98 117
6468 1 200 98 117
6469 1 78 99 80
6470 2 78 99 62
6471 1 78 99 97
6472 2 78 99 98
6473 3 78 99 100
6474 3 78 99 81
6475 4 78 99 82
6476 1 78 99 180
6477 1 78 99 197
6478 3 78 99 200
6479 3 78 99 181
6480 1 80 99 62
6481 1 80 99 97
6482 3 80 99 98
6483 2 80 99 100
6484 1 80 99 81
6485 3 80 99 82
6486 2 80 99 180
6487 3 80 99 197
6488 4 80 99 200
6489 3 80 99 181
6490 3 62 99 97
6491 4 62 99 98
6492 3 62 99 100
6493 1 62 99 81
6494 2 62 99 82
6495 1 62 99 180
6496 3 62 99 197
6497 3 62 99 200
6498 1 62 99 181
6499 1 97 99 98
6500 1 97 99 100
6501 2 97 99 81
6502 3 97 99 82
6503 3 97 99 180
6504 2 97 99 197
6505 3 97 99 200
6506 4 97 99 181
6507 1 98 99 100
6508 3 98 99 81
6509 2 98 99 82
6510 3 98 99 180
6511 1 98 99 197
6512 1 98 99 200
6513 3 98 99 181
6514 1 100 99 81
6515 1 100 99 82
6516 4 100 99 180
6517 3 100 99 197
6518 2 100 99 200
6519 3 100 99 181
6520 1 81 99 82
6521 3 81 99 180
6522 4 81 99 197
6523 3 81 99 200
6524 2 81 99 181
6525 3 82 99 180
6526 3 82 99 197
6527 1 82 99 200
6528 1 82 99 181
6529 1 180 99 197
6530 2 180 99 200
6531 1 180 99 181
6532 1 197 99 200
6533 2 197 99 181
6534 1 200 99 181
6535 1 498 100 499
6536 2 498 100 482
6537 1 498 100 419
6538 1 498 100 97
6539 2 498 100 98
6540 3 498 100 99
6541 3 498 100 81
6542 4 498 100 82
6543 1 498 100 17
6544 3 498 100 19
6545 3 498 100 1
6546 1 499 100 482
6547 2 499 100 419
6548 1 499 100 97
6549 3 499 100 98
6550 2 499 100 99
6551 1 499 100 81
6552 3 499 100 82
6553 3 499 100 17
6554 4 499 100 19
6555 3 499 100 1
6556 1 482 100 419
6557 3 482 100 97
6558 4 482 100 98
6559 3 482 100 99
6560 1 482 100 81
6561 2 482 100 82
6562 3 482 100 17
6563 3 482 100 19
6564 1 482 100 1
6565 3 419 100 97
6566 3 419 100 98
6567 4 419 100 99
6568 3 419 100 81
6569 3 419 100 82
6570 1 419 100 17
6571 2 419 100 19
6572 1 419 100 1
6573 1 97 100 98
6574 1 97 100 99
6575 2 97 100 81
6576 3 97 100 82
6577 2 97 100 17
6578 3 97 100 19
6579 4 97 100 1
6580 1 98 100 99
6581 3 98 100 81
6582 2 98 100 82
6583 1 98 100 17
6584 1 98 100 19
6585 3 98 100 1
6586 1 99 100 81
6587 1 99 100 82
6588 3 99 100 17
6589 2 99 100 19
6590 3 99 100 1
6591 1 81 100 82
6592 4 81 100 17
6593 3 81 100 19
6594 2 81 100 1
6595 3 82 100 17
6596 1 82 100 19
6597 1 82 100 1
6598 1 17 100 19
6599 2 17 100 1
6600 1 19 100 1
6601 1 82 101 19
6602 2 82 101 2
6603 1 82 101 3
6604 1 82 101 200
6605 2 82 101 182
6606 1 82 101 184
6607 3 82 101 119
6608 3 82 101 120
6609 4 82 101 102
6610 3 82 101 103
6611 3 82 101 104
6612 1 19 101 2
6613 2 19 101 3
6614 1 19 101 200
6615 3 19 101 182
6616 3 19 101 184
6617 2 19 101 119
6618 1 19 101 120
6619 3 19 101 102
6620 4 19 101 103
6621 3 19 101 104
6622 1 2 101 3
6623 3 2 101 200
6624 4 2 101 182
6625 3 2 101 184
6626 3 2 101 119
6627 1 2 101 120
6628 2 2 101 102
6629 3 2 101 103
6630 1 2 101 104
6631 3 3 101 200
6632 3 3 101 182
6633 1 3 101 184
6634 4 3 101 119
6635 3 3 101 120
6636 3 3 101 102
6637 2 3 101 103
6638 1 3 101 104
6639 1 200 101 182
6640 2 200 101 184
6641 1 200 101 119
6642 2 200 101 120
6643 3 200 101 102
6644 3 200 101 103
6645 4 200 101 104
6646 1 182 101 184
6647 1 182 101 119
6648 3 182 101 120
6649 2 182 101 102
6650 1 182 101 103
6651 3 182 101 104
6652 3 184 101 119
6653 4 184 101 120
6654 3 184 101 102
6655 1 184 101 103
6656 2 184 101 104
6657 1 119 101 120
6658 1 119 101 102
6659 2 119 101 103
6660 3 119 101 104
6661 1 120 101 102
6662 3 120 101 103
6663 2 120 101 104
6664 1 102 101 103
6665 1 102 101 104
6666 1 103 101 104
6667 1 119 102 120
6668 1 119 102 101
6669 2 119 102 103
6670 3 119 102 104
6671 2 119 102 139
6672 3 119 102 121
6673 4 119 102 123
6674 1 119 102 220
6675 1 119 102 201
6676 3 119 102 204
6677 3 119 102 221
6678 1 120 102 101
6679 3 120 102 103
6680 2 120 102 104
6681 1 120 102 139
6682 1 120 102 121
6683 3 120 102 123
6684 2 120 102 220
6685 3 120 102 201
6686 4 120 102 204
6687 3 120 102 221
6688 1 101 102 103
6689 1 101 102 104
6690 3 101 102 139
6691 2 101 102 121
6692 3 101 102 123
6693 3 101 102 220
6694 2 101 102 201
6695 3 101 102 204
6696 4 101 102 221
6697 1 103 102 104
6698 4 103 102 139
6699 3 103 102 121
6700 2 103 102 123
6701 3 103 102 220
6702 1 103 102 201
6703 1 103 102 204
6704 3 103 102 221
6705 3 104 102 139
6706 1 104 102 121
6707 1 104 102 123
6708 4 104 102 220
6709 3 104 102 201
6710 2 104 102 204
6711 3 104 102 221
6712 1 139 102 121
6713 2 139 102 123
6714 1 139 102 220
6715 3 139 102 201
6716 3 139 102 204
6717 1 139 102 221
6718 1 121 102 123
6719 3 121 102 220
6720 4 121 102 201
6721 3 121 102 204
6722 2 121 102 221
6723 3 123 102 220
6724 3 123 102 201
6725 1 123 102 204
6726 1 123 102 221
6727 1 220 102 201
6728 2 220 102 204
6729 1 220 102 221
6730 1 201 102 204
6731 2 201 102 221
6732 1 204 102 221
6733 1 182 103 184
6734 2 182 103 186
6735 1 182 103 101
6736 2 182 103 102
6737 3 182 103 104
6738 3 182 103 105
6739 4 182 103 106
6740 1 182 103 284
6741 1 182 103 201
6742 3 182 103 204
6743 3 182 103 205
6744 1 184 103 186
6745 1 184 103 101
6746 3 184 103 102
6747 2 184 103 104
6748 1 184 103 105
6749 3 184 103 106
6750 2 184 103 284
6751 3 184 103 201
6752 4 184 103 204
6753 3 184 103 205
6754 3 186 103 101
6755 4 186 103 102
6756 3 186 103 104
6757 1 186 103 105
6758 2 186 103 106
6759 1 186 103 284
6760 3 186 103 201
6761 3 186 103 204
6762 1 186 103 205
6763 1 101 103 102
6764 1 101 103 104
6765 2 101 103 105
6766 3 101 103 106
6767 3 101 103 284
6768 2 101 103 201
6769 3 101 103 204
6770 4 101 103 205
6771 1 102 103 104
6772 3 102 103 105
6773 2 102 103 106
6774 3 102 103 284
6775 1 102 103 201
6776 1 102 103 204
6777 3 102 103 205
6778 1 104 103 105
6779 1 104 103 106
6780 4 104 103 284
6781 3 104 103 201
6782 2 104 103 204
6783 3 104 103 205
6784 1 105 103 106
6785 3 105 103 284
6786 4 105 103 201
6787 3 105 103 204
6788 2 105 103 205
6789 3 106 103 284
6790 3 106 103 201
6791 1 106 103 204
6792 1 106 103 205
6793 1 284 103 201
6794 2 284 103 204
6795 1 284 103 205
6796 1 201 103 204
6797 2 201 103 205
6798 1 204 103 205
6799 1 2 104 3
6800 2 2 104 6
6801 1 2 104 23
6802 1 2 104 101
6803 2 2 104 102
6804 3 2 104 103
6805 3 2 104 105
6806 4 2 104 106
6807 1 2 104 121
6808 3 2 104 123
6809 3 2 104 125
6810 1 3 104 6
6811 2 3 104 23
6812 1 3 104 101
6813 3 3 104 102
6814 2 3 104 103
6815 1 3 104 105
6816 3 3 104 106
6817 3 3 104 121
6818 4 3 104 123
6819 3 3 104 125
6820 1 6 104 23
6821 3 6 104 101
6822 4 6 104 102
6823 3 6 104 103
6824 1 6 104 105
6825 2 6 104 106
6826 3 6 104 121
6827 3 6 104 123
6828 1 6 104 125
6829 3 23 104 101
6830 3 23 104 102
6831 4 23 104 103
6832 3 23 104 105
6833 3 23 104 106
6834 1 23 104 121
6835 2 23 104 123
6836 1 23 104 125
6837 1 101 104 102
6838 1 101 104 103
6839 2 101 104 105
6840 3 101 104 106
6841 2 101 104 121
6842 3 101 104 123
6843 4 101 104 125
6844 1 102 104 103
6845 3 102 104 105
6846 2 102 104 106
6847 1 102 104 121
6848 1 102 104 123
6849 3 102 104 125
6850 1 103 104 105
6851 1 103 104 106
6852 3 103 104 121
6853 2 103 104 123
6854 3 103 104 125
6855 1 105 104 106
6856 4 105 104 121
6857 3 105 104 123
6858 2 105 104 125
6859 3 106 104 121
6860 1 106 104 123
6861 1 106 104 125
6862 1 121 104 123
6863 2 121 104 125
6864 1 123 104 125
6865 1 86 105 3
6866 2 86 105 6
6867 1 86 105 7
6868 1 86 105 184
6869 2 86 105 186
6870 1 86 105 188
6871 3 86 105 103
6872 3 86 105 104
6873 4 86 105 106
6874 3 86 105 107
6875 3 86 105 108
6876 1 3 105 6
6877 2 3 105 7
6878 1 3 105 184
6879 3 3 105 186
6880 3 3 105 188
6881 2 3 105 103
6882 1 3 105 104
6883 3 3 105 106
6884 4 3 105 107
6885 3 3 105 108
6886 1 6 105 7
6887 3 6 105 184
6888 4 6 105 186
6889 3 6 105 188
6890 3 6 105 103
6891 1 6 105 104
6892 2 6 105 106
6893 3 6 105 107
6894 1 6 105 108
6895 3 7 105 184
6896 3 7 105 186
6897 1 7 105 188
6898 4 7 105 103
6899 3 7 105 104
6900 3 7 105 106
6901 2 7 105 107
6902 1 7 105 108
6903 1 184 105 186
6904 2 184 105 188
6905 1 184 105 103
6906 2 184 105 104
6907 3 184 105 106
6908 3 184 105 107
6909 4 184 105 108
6910 1 186 105 188
6911 1 186 105 103
6912 3 186 105 104
6913 2 186 105 106
6914 1 186 105 107
6915 3 186 105 108
6916 3 188 105 103
6917 4 188 105 104
6918 3 188 105 106
6919 1 188 105 107
6920 2 188 105 108
6921 1 103 105 104
6922 1 103 105 106
6923 2 103 105 107
6924 3 103 105 108
6925 1 104 105 106
6926 3 104 105 107
6927 2 104 105 108
6928 1 106 105 107
6929 1 106 105 108
6930 1 107 105 108
6931 1 103 106 104
6932 1 103 106 105
6933 2 103 106 107
6934 3 103 106 108
6935 2 103 106 123
6936 3 103 106 125
6937 4 103 106 127
6938 1 103 106 204
6939 1 103 106 205
6940 3 103 106 208
6941 3 103 106 225
6942 1 104 106 105
6943 3 104 106 107
6944 2 104 106 108
6945 1 104 106 123
6946 1 104 106 125
6947 3 104 106 127
6948 2 104 106 204
6949 3 104 106 205
6950 4 104 106 208
6951 3 104 106 225
6952 1 105 106 107
6953 1 105 106 108
6954 3 105 106 123
6955 2 105 106 125
6956 3 105 106 127
6957 3 105 106 204
6958 2 105 106 205
6959 3 105 106 208
6960 4 105 106 225
6961 1 107 106 108
6962 4 107 106 123
6963 3 107 106 125
6964 2 107 106 127
6965 3 107 106 204
6966 1 107 106 205
6967 1 107 106 208
6968 3 107 106 225
6969 3 108 106 123
6970 1 108 106 125
6971 1 108 106 127
6972 4 108 106 204
6973 3 108 106 205
6974 2 108 106 208
6975 3 108 106 225
6976 1 123 106 125
6977 2 123 106 127
6978 1 123 106 204
6979 3 123 106 205
6980 3 123 106 208
6981 1 123 106 225
6982 1 125 106 127
6983 3 125 106 204
6984 4 125 106 205
6985 3 125 106 208
6986 2 125 106 225
6987 3 127 106 204
6988 3 127 106 205
6989 1 127 106 208
6990 1 127 106 225
6991 1 204 106 205
6992 2 204 106 208
6993 1 204 106 225
6994 1 205 106 208
6995 2 205 106 225
6996 1 208 106 225
6997 1 186 107 188
6998 2 186 107 190
6999 1 186 107 105
7000 2 186 107 106
7001 3 186 107 108
7002 3 186 107 109
7003 4 186 107 110
7004 1 186 107 288
7005 1 186 107 205
7006 3 186 107 208
7007 3 186 107 209
7008 1 188 107 190
7009 1 188 107 105
7010 3 188 107 106
7011 2 188 107 108
7012 1 188 107 109
7013 3 188 107 110
7014 2 188 107 288
7015 3 188 107 205
7016 4 188 107 208
7017 3 188 107 209
7018 3 190 107 105
7019 4 190 107 106
7020 3 190 107 108
7021 1 190 107 109
7022 2 190 107 110
7023 1 190 107 288
7024 3 190 107 205
7025 3 190 107 208
7026 1 190 107 209
7027 1 105 107 106
7028 1 105 107 108
7029 2 105 107 109
7030 3 105 107 110
7031 3 105 107 288
7032 2 105 107 205
7033 3 105 107 208
7034 4 105 107 209
7035 1 106 107 108
7036 3 106 107 109
7037 2 106 107 110
7038 3 106 107 288
7039 1 106 107 205
7040 1 106 107 208
7041 3 106 107 209
7042 1 108 107 109
7043 1 108 107 110
7044 4 108 107 288
7045 3 108 107 205
7046 2 108 107 208
7047 3 108 107 209
7048 1 109 107 110
7049 3 109 107 288
7050 4 109 107 205
7051 3 109 107 208
7052 2 109 107 209
7053 3 110 107 288
7054 3 110 107 205
7055 1 110 107 208
7056 1 110 107 209
7057 1 288 107 205
7058 2 288 107 208
7059 1 288 107 209
7060 1 205 107 208
7061 2 205 107 209
7062 1 208 107 209
7063 1 6 108 7
7064 2 6 108 10
7065 1 6 108 27
7066 1 6 108 105
7067 2 6 108 106
7068 3 6 108 107
7069 3 6 108 109
7070 4 6 108 110
7071 1 6 108 125
7072 3 6 108 127
7073 3 6 108 129
7074 1 7 108 10
7075 2 7 108 27
7076 1 7 108 105
7077 3 7 108 106
7078 2 7 108 107
7079 1 7 108 109
7080 3 7 108 110
7081 3 7 108 125
7082 4 7 108 127
7083 3 7 108 129
7084 1 10 108 27
7085 3 10 108 105
7086 4 10 108 106
7087 3 10 108 107
7088 1 10 108 109
7089 2 10 108 110
7090 3 10 108 125
7091 3 10 108 127
7092 1 10 108 129
7093 3 27 108 105
7094 3 27 108 106
7095 4 27 108 107
7096 3 27 108 109
7097 3 27 108 110
7098 1 27 108 125
7099 2 27 108 127
7100 1 27 108 129
7101 1 105 108 106
7102 1 105 108 107
7103 2 105 108 109
7104 3 105 108 110
7105 2 105 108 125
7106 3 105 108 127
7107 4 105 108 129
7108 1 106 108 107
7109 3 106 108 109
7110 2 106 108 110
7111 1 106 108 125
7112 1 106 108 127
7113 3 106 108 129
7114 1 107 108 109
7115 1 107 108 110
7116 3 107 108 125
7117 2 107 108 127
7118 3 107 108 129
7119 1 109 108 110
7120 4 109 108 125
7121 3 109 108 127
7122 2 109 108 129
7123 3 110 108 125
7124 1 110 108 127
7125 1 110 108 129
7126 1 125 108 127
7127 2 125 108 129
7128 1 127 108 129
7129 1 90 109 7
7130 2 90 109 10
7131 1 90 109 11
7132 1 90 109 188
7133 2 90 109 190
7134 1 90 109 192
7135 3 90 109 107
7136 3 90 109 108
7137 4 90 109 110
7138 3 90 109 111
7139 3 90 109 112
7140 1 7 109 10
7141 2 7 109 11
7142 1 7 109 188
7143 3 7 109 190
7144 3 7 109 192
7145 2 7 109 107
7146 1 7 109 108
7147 3 7 109 110
7148 4 7 109 111
7149 3 7 109 112
7150 1 10 109 11
7151 3 10 109 188
7152 4 10 109 190
7153 3 10 109 192
7154 3 10 109 107
7155 1 10 109 108
7156 2 10 109 110
7157 3 10 109 111
7158 1 10 109 112
7159 3 11 109 188
7160 3 11 109 190
7161 1 11 109 192
7162 4 11 109 107
7163 3 11 109 108
7164 3 11 109 110
7165 2 11 109 111
7166 1 11 109 112
7167 1 188 109 190
7168 2 188 109 192
7169 1 188 109 107
7170 2 188 109 108
7171 3 188 109 110
7172 3 188 109 111
7173 4 188 109 112
7174 1 190 109 192
7175 1 190 109 107
7176 3 190 109 108
7177 2 190 109 110
7178 1 190 109 111
7179 3 190 109 112
7180 3 192 109 107
7181 4 192 109 108
7182 3 192 109 110
7183 1 192 109 111
7184 2 192 109 112
7185 1 107 109 108
7186 1 107 109 110
7187 2 107 109 111
7188 3 107 109 112
7189 1 108 109 110
7190 3 108 109 111
7191 2 108 109 112
7192 1 110 109 111
7193 1 110 109 112
7194 1 111 109 112
7195 1 107 110 108
7196 1 107 110 109
7197 2 107 110 111
7198 3 107 110 112
7199 2 107 110 127
7200 3 107 110 129
7201 4 107 110 131
7202 1 107 110 208
7203 1 107 110 209
7204 3 107 110 212
7205 3 107 110 229
7206 1 108 110 109
7207 3 108 110 111
7208 2 108 110 112
7209 1 108 110 127
7210 1 108 110 129
7211 3 108 110 131
7212 2 108 110 208
7213 3 108 110 209
7214 4 108 110 212
7215 3 108 110 229
7216 1 109 110 111
7217 1 109 110 112
7218 3 109 110 127
7219 2 109 110 129
7220 3 109 110 131
7221 3 109 110 208
7222 2 109 110 209
7223 3 109 110 212
7224 4 109 110 229
7225 1 111 110 112
7226 4 111 110 127
7227 3 111 110 129
7228 2 111 110 131
7229 3 111 110 208
7230 1 111 110 209
7231 1 111 110 212
7232 3 111 110 229
7233 3 112 110 127
7234 1 112 110 129
7235 1 112 110 131
7236 4 112 110 208
7237 3 112 110 209
7238 2 112 110 212
7239 3 112 110 229
7240 1 127 110 129
7241 2 127 110 131
7242 1 127 110 208
7243 3 127 110 209
7244 3 127 110 212
7245 1 127 110 229
7246 1 129 110 131
7247 3 129 110 208
7248 4 129 110 209
7249 3 129 110 212
7250 2 129 110 229
7251 3 131 110 208
7252 3 131 110 209
7253 1 131 110 212
7254 1 131 110 229
7255 1 208 110 209
7256 2 208 110 212
7257 1 208 110 229
7258 1 209 110 212
7259 2 209 110 229
7260 1 212 110 229
7261 1 190 111 192
7262 2 190 111 194
7263 1 190 111 109
7264 2 190 111 110
7265 3 190 111 112
7266 3 190 111 113
7267 4 190 111 114
7268 1 190 111 292
7269 1 190 111 209
7270 3 190 111 212
7271 3 190 111 213
7272 1 192 111 194
7273 1 192 111 109
7274 3 192 111 110
7275 2 192 111 112
7276 1 192 111 113
7277 3 192 111 114
7278 2 192 111 292
7279 3 192 111 209
7280 4 192 111 212
7281 3 192 111 213
7282 3 194 111 109
7283 4 194 111 110
7284 3 194 111 112
7285 1 194 111 113
7286 2 194 111 114
7287 1 194 111 292
7288 3 194 111 209
7289 3 194 111 212
7290 1 194 111 213
7291 1 109 111 110
7292 1 109 111 112
7293 2 109 111 113
7294 3 109 111 114
7295 3 109 111 292
7296 2 109 111 209
7297 3 109 111 212
7298 4 109 111 213
7299 1 110 111 112
7300 3 110 111 113
7301 2 110 111 114
7302 3 110 111 292
7303 1 110 111 209
7304 1 110 111 212
7305 3 110 111 213
7306 1 112 111 113
7307 1 112 111 114
7308 4 112 111 292
7309 3 112 111 209
7310 2 112 111 212
7311 3 112 111 213
7312 1 113 111 114
7313 3 113 111 292
7314 4 113 111 209
7315 3 113 111 212
7316 2 113 111 213
7317 3 114 111 292
7318 3 114 111 209
7319 1 114 111 212
7320 1 114 111 213
7321 1 292 111 209
7322 2 292 111 212
7323 1 292 111 213
7324 1 209 111 212
7325 2 209 111 213
7326 1 212 111 213
7327 1 10 112 11
7328 2 10 112 14
7329 1 10 112 31
7330 1 10 112 109
7331 2 10 112 110
7332 3 10 112 111
7333 3 10 112 113
7334 4 10 112 114
7335 1 10 112 129
7336 3 10 112 131
7337 3 10 112 133
7338 1 11 112 14
7339 2 11 112 31
7340 1 11 112 109
7341 3 11 112 110
7342 2 11 112 111
7343 1 11 112 113
7344 3 11 112 114
7345 3 11 112 129
7346 4 11 112 131
7347 3 11 112 133
7348 1 14 112 31
7349 3 14 112 109
7350 4 14 112 110
7351 3 14 112 111
7352 1 14 112 113
7353 2 14 112 114
7354 3 14 112 129
7355 3 14 112 131
7356 1 14 112 133
7357 3 31 112 109
7358 3 31 112 110
7359 4 31 112 111
7360 3 31 112 113
7361 3 31 112 114
7362 1 31 112 129
7363 2 31 112 131
7364 1 31 112 133
7365 1 109 112 110
7366 1 109 112 111
7367 2 109 112 113
7368 3 109 112 114
7369 2 109 112 129
7370 3 109 112 131
7371 4 109 112 133
7372 1 110 112 111
7373 3 110 112 113
7374 2 110 112 114
7375 1 110 112 129
7376 1 110 112 131
7377 3 110 112 133
7378 1 111 112 113
7379 1 111 112 114
7380 3 111 112 129
7381 2 111 112 131
7382 3 111 112 133
7383 1 113 112 114
7384 4 113 112 129
7385 3 113 112 131
7386 2 113 112 133
7387 3 114 112 129
7388 1 114 112 131
7389 1 114 112 133
7390 1 129 112 131
7391 2 129 112 133
7392 1 131 112 133
7393 1 94 113 11
7394 2 94 113 14
7395 1 94 113 15
7396 1 94 113 192
7397 2 94 113 194
7398 1 94 113 196
7399 3 94 113 111
7400 3 94 113 112
7401 4 94 113 114
7402 3 94 113 115
7403 3 94 113 116
7404 1 11 113 14
7405 2 11 113 15
7406 1 11 113 192
7407 3 11 113 194
7408 3 11 113 196
7409 2 11 113 111
7410 1 11 113 112
7411 3 11 113 114
7412 4 11 113 115
7413 3 11 113 116
7414 1 14 113 15
7415 3 14 113 192
7416 4 14 113 194
7417 3 14 113 196
7418 3 14 113 111
7419 1 14 113 112
7420 2 14 113 114
7421 3 14 113 115
7422 1 14 113 116
7423 3 15 113 192
7424 3 15 113 194
7425 1 15 113 196
7426 4 15 113 111
7427 3 15 113 112
7428 3 15 113 114
7429 2 15 113 115
7430 1 15 113 116
7431 1 192 113 194
7432 2 192 113 196
7433 1 192 113 111
7434 2 192 113 112
7435 3 192 113 114
7436 3 192 113 115
7437 4 192 113 116
7438 1 194 113 196
7439 1 194 113 111
7440 3 194 113 112
7441 2 194 113 114
7442 1 194 113 115
7443 3 194 113 116
7444 3 196 113 111
7445 4 196 113 112
7446 3 196 113 114
7447 1 196 113 115
7448 2 196 113 116
7449 1 111 113 112
7450 1 111 113 114
7451 2 111 113 115
7452 3 111 113 116
7453 1 112 113 114
7454 3 112 113 115
7455 2 112 113 116
7456 1 114 113 115
7457 1 114 113 116
7458 1 115 113 116
7459 1 111 114 112
7460 1 111 114 113
7461 2 111 114 115
7462 3 111 114 116
7463 2 111 114 131
7464 3 111 114 133
7465 4 111 114 135
7466 1 111 114 212
7467 1 111 114 213
7468 3 111 114 216
7469 3 111 114 233
7470 1 112 114 113
7471 3 112 114 115
7472 2 112 114 116
7473 1 112 114 131
7474 1 112 114 133
7475 3 112 114 135
7476 2 112 114 212
7477 3 112 114 213
7478 4 112 114 216
7479 3 112 114 233
7480 1 113 114 115
7481 1 113 114 116
7482 3 113 114 131
7483 2 113 114 133
7484 3 113 114 135
7485 3 113 114 212
7486 2 113 114 213
7487 3 113 114 216
7488 4 113 114 233
7489 1 115 114 116
7490 4 115 114 131
7491 3 115 114 133
7492 2 115 114 135
7493 3 115 114 212
7494 1 115 114 213
7495 1 115 114 216
7496 3 115 114 233
7497 3 116 114 131
7498 1 116 114 133
7499 1 116 114 135
7500 4 116 114 212
7501 3 116 114 213
7502 2 116 114 216
7503 3 116 114 233
7504 1 131 114 133
7505 2 131 114 135
7506 1 131 114 212
7507 3 131 114 213
7508 3 131 114 216
7509 1 131 114 233
7510 1 133 114 135
7511 3 133 114 212
7512 4 133 114 213
7513 3 133 114 216
7514 2 133 114 233
7515 3 135 114 212
7516 3 135 114 213
7517 1 135 114 216
7518 1 135 114 233
7519 1 212 114 213
7520 2 212 114 216
7521 1 212 114 233
7522 1 213 114 216
7523 2 213 114 233
7524 1 216 114 233
7525 1 194 115 196
7526 2 194 115 198
7527 1 194 115 113
7528 2 194 115 114
7529 3 194 115 116
7530 3 194 115 117
7531 4 194 115 118
7532 1 194 115 296
7533 1 194 115 213
7534 3 194 115 216
7535 3 194 115 217
7536 1 196 115 198
7537 1 196 115 113
7538 3 196 115 114
7539 2 196 115 116
7540 1 196 115 117
7541 3 196 115 118
7542 2 196 115 296
7543 3 196 115 213
7544 4 196 115 216
7545 3 196 115 217
7546 3 198 115 113
7547 4 198 115 114
7548 3 198 115 116
7549 1 198 115 117
7550 2 198 115 118
7551 1 198 115 296
7552 3 198 115 213
7553 3 198 115 216
7554 1 198 115 217
7555 1 113 115 114
7556 1 113 115 116
7557 2 113 115 117
7558 3 113 115 118
7559 3 113 115 296
7560 2 113 115 213
7561 3 113 115 216
7562 4 113 115 217
7563 1 114 115 116
7564 3 114 115 117
7565 2 114 115 118
7566 3 114 115 296
7567 1 114 115 213
7568 1 114 115 216
7569 3 114 115 217
7570 1 116 115 117
7571 1 116 115 118
7572 4 116 115 296
7573 3 116 115 213
7574 2 116 115 216
7575 3 116 115 217
7576 1 117 115 118
7577 3 117 115 296
7578 4 117 115 213
7579 3 117 115 216
7580 2 117 115 217
7581 3 118 115 296
7582 3 118 115 213
7583 1 118 115 216
7584 1 118 115 217
7585 1 296 115 213
7586 2 296 115 216
7587 1 296 115 217
7588 1 213 115 216
7589 2 213 115 217
7590 1 216 115 217
7591 1 14 116 15
7592 2 14 116 18
7593 1 14 116 35
7594 1 14 116 113
7595 2 14 116 114
7596 3 14 116 115
7597 3 14 116 117
7598 4 14 116 118
7599 1 14 116 133
7600 3 14 116 135
7601 3 14 116 137
7602 1 15 116 18
7603 2 15 116 35
7604 1 15 116 113
7605 3 15 116 114
7606 2 15 116 115
7607 1 15 116 117
7608 3 15 116 118
7609 3 15 116 133
7610 4 15 116 135
7611 3 15 116 137
7612 1 18 116 35
7613 3 18 116 113
7614 4 18 116 114
7615 3 18 116 115
7616 1 18 116 117
7617 2 18 116 118
7618 3 18 116 133
7619 3 18 116 135
7620 1 18 116 137
7621 3 35 116 113
7622 3 35 116 114
7623 4 35 116 115
7624 3 35 116 117
7625 3 35 116 118
7626 1 35 116 133
7627 2 35 116 135
7628 1 35 116 137
7629 1 113 116 114
7630 1 113 116 115
7631 2 113 116 117
7632 3 113 116 118
7633 2 113 116 133
7634 3 113 116 135
7635 4 113 116 137
7636 1 114 116 115
7637 3 114 116 117
7638 2 114 116 118
7639 1 114 116 133
7640 1 114 116 135
7641 3 114 116 137
7642 1 115 116 117
7643 1 115 116 118
7644 3 115 116 133
7645 2 115 116 135
7646 3 115 116 137
7647 1 117 116 118
7648 4 117 116 133
7649 3 117 116 135
7650 2 117 116 137
7651 3 118 116 133
7652 1 118 116 135
7653 1 118 116 137
7654 1 133 116 135
7655 2 133 116 137
7656 1 135 116 137
7657 1 98 117 15
7658 2 98 117 18
7659 1 98 117 19
7660 1 98 117 196
7661 2 98 117 198
7662 1 98 117 200
7663 3 98 117 115
7664 3 98 117 116
7665 4 98 117 118
7666 3 98 117 119
7667 3 98 117 120
7668 1 15 117 18
7669 2 15 117 19
7670 1 15 117 196
7671 3 15 117 198
7672 3 15 117 200
7673 2 15 117 115
7674 1 15 117 116
7675 3 15 117 118
7676 4 15 117 119
7677 3 15 117 120
7678 1 18 117 19
7679 3 18 117 196
7680 4 18 117 198
7681 3 18 117 200
7682 3 18 117 115
7683 1 18 117 116
7684 2 18 117 118
7685 3 18 117 119
7686 1 18 117 120
7687 3 19 117 196
7688 3 19 117 198
7689 1 19 117 200
7690 4 19 117 115
7691 3 19 117 116
7692 3 19 117 118
7693 2 19 117 119
7694 1 19 117 120
7695 1 196 117 198
7696 2 196 117 200
7697 1 196 117 115
7698 2 196 117 116
7699 3 196 117 118
7700 3 196 117 119
7701 4 196 117 120
7702 1 198 117 200
7703 1 198 117 115
7704 3 198 117 116
7705 2 198 117 118
7706 1 198 117 119
7707 3 198 117 120
7708 3 200 117 115
7709 4 200 117 116
7710 3 200 117 118
7711 1 200 117 119
7712 2 200 117 120
7713 1 115 117 116
7714 1 115 117 118
7715 2 115 117 119
7716 3 115 117 120
7717 1 116 117 118
7718 3 116 117 119
7719 2 116 117 120
7720 1 118 117 119
7721 1 118 117 120
7722 1 119 117 120
7723 1 115 118 116
7724 1 115 118 117
7725 2 115 118 119
7726 3 115 118 120
7727 2 115 118 135
7728 3 115 118 137
7729 4 115 118 139
7730 1 115 118 216
7731 1 115 118 217
7732 3 115 118 220
7733 3 115 118 237
7734 1 116 118 117
7735 3 116 118 119
7736 2 116 118 120
7737 1 116 118 135
7738 1 116 118 137
7739 3 116 118 139
7740 2 116 118 216
7741 3 116 118 217
7742 4 116 118 220
7743 3 116 118 237
7744 1 117 118 119
7745 1 117 118 120
7746 3 117 118 135
7747 2 117 118 137
7748 3 117 118 139
7749 3 117 118 216
7750 2 117 118 217
7751 3 117 118 220
7752 4 117 118 237
7753 1 119 118 120
7754 4 119 118 135
7755 3 119 118 137
7756 2 119 118 139
7757 3 119 118 216
7758 1 119 118 217
7759 1 119 118 220
7760 3 119 118 237
7761 3 120 118 135
7762 1 120 118 137
7763 1 120 118 139
7764 4 120 118 216
7765 3 120 118 217
7766 2 120 118 220
7767 3 120 118 237
7768 1 135 118 137
7769 2 135 118 139
7770 1 135 118 216
7771 3 135 118 217
7772 3 135 118 220
7773 1 135 118 237
7774 1 137 118 139
7775 3 137 118 216
7776 4 137 118 217
7777 3 137 118 220
7778 2 137 118 237
7779 3 139 118 216
7780 3 139 118 217
7781 1 139 118 220
7782 1 139 118 237
7783 1 216 118 217
7784 2 216 118 220
7785 1 216 118 237
7786 1 217 118 220
7787 2 217 118 237
7788 1 220 118 237
7789 1 198 119 200
7790 2 198 119 182
7791 1 198 119 117
7792 2 198 119 118
7793 3 198 119 120
7794 3 198 119 101
7795 4 198 119 102
7796 1 198 119 300
7797 1 198 119 217
7798 3 198 119 220
7799 3 198 119 201
7800 1 200 119 182
7801 1 200 119 117
7802 3 200 119 118
7803 2 200 119 120
7804 1 200 119 101
7805 3 200 119 102
7806 2 200 119 300
7807 3 200 119 217
7808 4 200 119 220
7809 3 200 119 201
7810 3 182 119 117
7811 4 182 119 118
7812 3 182 119 120
7813 1 182 119 101
7814 2 182 119 102
7815 1 182 119 300
7816 3 182 119 217
7817 3 182 119 220
7818 1 182 119 201
7819 1 117 119 118
7820 1 117 119 120
7821 2 117 119 101
7822 3 117 119 102
7823 3 117 119 300
7824 2 117 119 217
7825 3 117 119 220
7826 4 117 119 201
7827 1 118 119 120
7828 3 118 119 101
7829 2 118 119 102
7830 3 118 119 300
7831 1 118 119 217
7832 1 118 119 220
7833 3 118 119 201
7834 1 120 119 101
7835 1 120 119 102
7836 4 120 119 300
7837 3 120 119 217
7838 2 120 119 220
7839 3 120 119 201
7840 1 101 119 102
7841 3 101 119 300
7842 4 101 119 217
7843 3 101 119 220
7844 2 101 119 201
7845 3 102 119 300
7846 3 102 119 217
7847 1 102 119 220
7848 1 102 119 201
7849 1 300 119 217
7850 2 300 119 220
7851 1 300 119 201
7852 1 217 119 220
7853 2 217 119 201
7854 1 220 119 201
7855 1 18 120 19
7856 2 18 120 2
7857 1 18 120 39
7858 1 18 120 117
7859 2 18 120 118
7860 3 18 120 119
7861 3 18 120 101
7862 4 18 120 102
7863 1 18 120 137
7864 3 18 120 139
7865 3 18 120 121
7866 1 19 120 2
7867 2 19 120 39
7868 1 19 120 117
7869 3 19 120 118
7870 2 19 120 119
7871 1 19 120 101
7872 3 19 120 102
7873 3 19 120 137
7874 4 19 120 139
7875 3 19 120 121
7876 1 2 120 39
7877 3 2 120 117
7878 4 2 120 118
7879 3 2 120 119
7880 1 2 120 101
7881 2 2 120 102
7882 3 2 120 137
7883 3 2 120 139
7884 1 2 120 121
7885 3 39 120 117
7886 3 39 120 118
7887 4 39 120 119
7888 3 39 120 101
7889 3 39 120 102
7890 1 39 120 137
7891 2 39 120 139
7892 1 39 120 121
7893 1 117 120 118
7894 1 117 120 119
7895 2 117 120 101
7896 3 117 120 102
7897 2 117 120 137
7898 3 117 120 139
7899 4 117 120 121
7900 1 118 120 119
7901 3 118 120 101
7902 2 118 120 102
7903 1 118 120 137
7904 1 118 120 139
7905 3 118 120 121
7906 1 119 120 101
7907 1 119 120 102
7908 3 119 120 137
7909 2 119 120 139
7910 3 119 120 121
7911 1 101 120 102
7912 4 101 120 137
7913 3 101 120 139
7914 2 101 120 121
7915 3 102 120 137
7916 1 102 120 139
7917 1 102 120 121
7918 1 137 120 139
7919 2 137 120 121
7920 1 139 120 121
7921 1 2 121 39
7922 2 2 121 22
7923 1 2 121 23
7924 1 2 121 120
7925 2 2 121 102
7926 1 2 121 104
7927 3 2 121 139
7928 3 2 121 140
7929 4 2 121 122
7930 3 2 121 123
7931 3 2 121 124
7932 1 39 121 22
7933 2 39 121 23
7934 1 39 121 120
7935 3 39 121 102
7936 3 39 121 104
7937 2 39 121 139
7938 1 39 121 140
7939 3 39 121 122
7940 4 39 121 123
7941 3 39 121 124
7942 1 22 121 23
7943 3 22 121 120
7944 4 22 121 102
7945 3 22 121 104
7946 3 22 121 139
7947 1 22 121 140
7948 2 22 121 122
7949 3 22 121 123
7950 1 22 121 124
7951 3 23 121 120
7952 3 23 121 102
7953 1 23 121 104
7954 4 23 121 139
7955 3 23 121 140
7956 3 23 121 122
7957 2 23 121 123
7958 1 23 121 124
7959 1 120 121 102
7960 2 120 121 104
7961 1 120 121 139
7962 2 120 121 140
7963 3 120 121 122
7964 3 120 121 123
7965 4 120 121 124
7966 1 102 121 104
7967 1 102 121 139
7968 3 102 121 140
7969 2 102 121 122
7970 1 102 121 123
7971 3 102 121 124
7972 3 104 121 139
7973 4 104 121 140
7974 3 104 121 122
7975 1 104 121 123
7976 2 104 121 124
7977 1 139 121 140
7978 1 139 121 122
7979 2 139 121 123
7980 3 139 121 124
7981 1 140 121 122
7982 3 140 121 123
7983 2 140 121 124
7984 1 122 121 123
7985 1 122 121 124
7986 1 123 121 124
7987 1 139 122 140
7988 1 139 122 121
7989 2 139 122 123
7990 3 139 122 124
7991 2 139 122 159
7992 3 139 122 141
7993 4 139 122 143
7994 1 139 122 240
7995 1 139 122 221
7996 3 139 122 224
7997 3 139 122 241
7998 1 140 122 121
7999 3 140 122 123
8000 2 140 122 124
8001 1 140 122 159
8002 1 140 122 141
8003 3 140 122 143
8004 2 140 122 240
8005 3 140 122 221
8006 4 140 122 224
8007 3 140 122 241
8008 1 121 122 123
8009 1 121 122 124
8010 3 121 122 159
8011 2 121 122 141
8012 3 121 122 143
8013 3 121 122 240
8014 2 121 122 221
8015 3 121 122 224
8016 4 121 122 241
8017 1 123 122 124
8018 4 123 122 159
8019 3 123 122 141
8020 2 123 122 143
8021 3 123 122 240
8022 1 123 122 221
8023 1 123 122 224
8024 3 123 122 241
8025 3 124 122 159
8026 1 124 122 141
8027 1 124 122 143
8028 4 124 122 240
8029 3 124 122 221
8030 2 124 122 224
8031 3 124 122 241
8032 1 159 122 141
8033 2 159 122 143
8034 1 159 122 240
8035 3 159 122 221
8036 3 159 122 224
8037 1 159 122 241
8038 1 141 122 143
8039 3 141 122 240
8040 4 141 122 221
8041 3 141 122 224
8042 2 141 122 241
8043 3 143 122 240
8044 3 143 122 221
8045 1 143 122 224
8046 1 143 122 241
8047 1 240 122 221
8048 2 240 122 224
8049 1 240 122 241
8050 1 221 122 224
8051 2 221 122 241
8052 1 224 122 241
8053 1 102 123 104
8054 2 102 123 106
8055 1 102 123 121
8056 2 102 123 122
8057 3 102 123 124
8058 3 102 123 125
8059 4 102 123 126
8060 1 102 123 204
8061 1 102 123 221
8062 3 102 123 224
8063 3 102 123 225
8064 1 104 123 106
8065 1 104 123 121
8066 3 104 123 122
8067 2 104 123 124
8068 1 104 123 125
8069 3 104 123 126
8070 2 104 123 204
8071 3 104 123 221
8072 4 104 123 224
8073 3 104 123 225
8074 3 106 123 121
8075 4 106 123 122
8076 3 106 123 124
8077 1 106 123 125
8078 2 106 123 126
8079 1 106 123 204
8080 3 106 123 221
8081 3 106 123 224
8082 1 106 123 225
8083 1 121 123 122
8084 1 121 123 124
8085 2 121 123 125
8086 3 121 123 126
8087 3 121 123 204
8088 2 121 123 221
8089 3 121 123 224
8090 4 121 123 225
8091 1 122 123 124
8092 3 122 123 125
8093 2 122 123 126
8094 3 122 123 204
8095 1 122 123 221
8096 1 122 123 224
8097 3 122 123 225
8098 1 124 123 125
8099 1 124 123 126
8100 4 124 123 204
8101 3 124 123 221
8102 2 124 123 224
8103 3 124 123 225
8104 1 125 123 126
8105 3 125 123 204
8106 4 125 123 221
8107 3 125 123 224
8108 2 125 123 225
8109 3 126 123 204
8110 3 126 123 221
8111 1 126 123 224
8112 1 126 123 225
8113 1 204 123 221
8114 2 204 123 224
8115 1 204 123 225
8116 1 221 123 224
8117 2 221 123 225
8118 1 224 123 225
8119 1 22 124 23
8120 2 22 124 26
8121 1 22 124 43
8122 1 22 124 121
8123 2 22 124 122
8124 3 22 124 123
8125 3 22 124 125
8126 4 22 124 126
8127 1 22 124 141
8128 3 22 124 143
8129 3 22 124 145
8130 1 23 124 26
8131 2 23 124 43
8132 1 23 124 121
8133 3 23 124 122
8134 2 23 124 123
8135 1 23 124 125
8136 3 23 124 126
8137 3 23 124 141
8138 4 23 124 143
8139 3 23 124 145
8140 1 26 124 43
8141 3 26 124 121
8142 4 26 124 122
8143 3 26 124 123
8144 1 26 124 125
8145 2 26 124 126
8146 3 26 124 141
8147 3 26 124 143
8148 1 26 124 145
8149 3 43 124 121
8150 3 43 124 122
8151 4 43 124 123
8152 3 43 124 125
8153 3 43 124 126
8154 1 43 124 141
8155 2 43 124 143
8156 1 43 124 145
8157 1 121 124 122
8158 1 121 124 123
8159 2 121 124 125
8160 3 121 124 126
8161 2 121 124 141
8162 3 121 124 143
8163 4 121 124 145
8164 1 122 124 123
8165 3 122 124 125
8166 2 122 124 126
8167 1 122 124 141
8168 1 122 124 143
8169 3 122 124 145
8170 1 123 124 125
8171 1 123 124 126
8172 3 123 124 141
8173 2 123 124 143
8174 3 123 124 145
8175 1 125 124 126
8176 4 125 124 141
8177 3 125 124 143
8178 2 125 124 145
8179 3 126 124 141
8180 1 126 124 143
8181 1 126 124 145
8182 1 141 124 143
8183 2 141 124 145
8184 1 143 124 145
8185 1 6 125 23
8186 2 6 125 26
8187 1 6 125 27
8188 1 6 125 104
8189 2 6 125 106
8190 1 6 125 108
8191 3 6 125 123
8192 3 6 125 124
8193 4 6 125 126
8194 3 6 125 127
8195 3 6 125 128
8196 1 23 125 26
8197 2 23 125 27
8198 1 23 125 104
8199 3 23 125 106
8200 3 23 125 108
8201 2 23 125 123
8202 1 23 125 124
8203 3 23 125 126
8204 4 23 125 127
8205 3 23 125 128
8206 1 26 125 27
8207 3 26 125 104
8208 4 26 125 106
8209 3 26 125 108
8210 3 26 125 123
8211 1 26 125 124
8212 2 26 125 126
8213 3 26 125 127
8214 1 26 125 128
8215 3 27 125 104
8216 3 27 125 106
8217 1 27 125 108
8218 4 27 125 123
8219 3 27 125 124
8220 3 27 125 126
8221 2 27 125 127
8222 1 27 125 128
8223 1 104 125 106
8224 2 104 125 108
8225 1 104 125 123
8226 2 104 125 124
8227 3 104 125 126
8228 3 104 125 127
8229 4 104 125 128
8230 1 106 125 108
8231 1 106 125 123
8232 3 106 125 124
8233 2 106 125 126
8234 1 106 125 127
8235 3 106 125 128
8236 3 108 125 123
8237 4 108 125 124
8238 3 108 125 126
8239 1 108 125 127
8240 2 108 125 128
8241 1 123 125 124
8242 1 123 125 126
8243 2 123 125 127
8244 3 123 125 128
8245 1 124 125 126
8246 3 124 125 127
8247 2 124 125 128
8248 1 126 125 127
8249 1 126 125 128
8250 1 127 125 128
8251 1 123 126 124
8252 1 123 126 125
8253 2 123 126 127
8254 3 123 126 128
8255 2 123 126 143
8256 3 123 126 145
8257 4 123 126 147
8258 1 123 126 224
8259 1 123 126 225
8260 3 123 126 228
8261 3 123 126 245
8262 1 124 126 125
8263 3 124 126 127
8264 2 124 126 128
8265 1 124 126 143
8266 1 124 126 145
8267 3 124 126 147
8268 2 124 126 224
8269 3 124 126 225
8270 4 124 126 228
8271 3 124 126 245
8272 1 125 126 127
8273 1 125 126 128
8274 3 125 126 143
8275 2 125 126 145
8276 3 125 126 147
8277 3 125 126 224
8278 2 125 126 225
8279 3 125 126 228
8280 4 125 126 245
8281 1 127 126 128
8282 4 127 126 143
8283 3 127 126 145
8284 2 127 126 147
8285 3 127 126 224
8286 1 127 126 225
8287 1 127 126 228
8288 3 127 126 245
8289 3 128 126 143
8290 1 128 126 145
8291 1 128 126 147
8292 4 128 126 224
8293 3 128 126 225
8294 2 128 126 228
8295 3 128 126 245
8296 1 143 126 145
8297 2 143 126 147
8298 1 143 126 224
8299 3 143 126 225
8300 3 143 126 228
8301 1 143 126 245
8302 1 145 126 147
8303 3 145 126 224
8304 4 145 126 225
8305 3 145 126 228
8306 2 145 126 245
8307 3 147 126 224
8308 3 147 126 225
8309 1 147 126 228
8310 1 147 126 245
8311 1 224 126 225
8312 2 224 126 228
8313 1 224 126 245
8314 1 225 126 228
8315 2 225 126 245
8316 1 228 126 245
8317 1 106 127 108
8318 2 106 127 110
8319 1 106 127 125
8320 2 106 127 126
8321 3 106 127 128
8322 3 106 127 129
8323 4 106 127 130
8324 1 106 127 208
8325 1 106 127 225
8326 3 106 127 228
8327 3 106 127 229
8328 1 108 127 110
8329 1 108 127 125
8330 3 108 127 126
8331 2 108 127 128
8332 1 108 127 129
8333 3 108 127 130
8334 2 108 127 208
8335 3 108 127 225
8336 4 108 127 228
8337 3 108 127 229
8338 3 110 127 125
8339 4 110 127 126
8340 3 110 127 128
8341 1 110 127 129
8342 2 110 127 130
8343 1 110 127 208
8344 3 110 127 225
8345 3 110 127 228
8346 1 110 127 229
8347 1 125 127 126
8348 1 125 127 128
8349 2 125 127 129
8350 3 125 127 130
8351 3 125 127 208
8352 2 125 127 225
8353 3 125 127 228
8354 4 125 127 229
8355 1 126 127 128
8356 3 126 127 129
8357 2 126 127 130
8358 3 126 127 208
8359 1 126 127 225
8360 1 126 127 228
8361 3 126 127 229
8362 1 128 127 129
8363 1 128 127 130
8364 4 128 127 208
8365 3 128 127 225
8366 2 128 127 228
8367 3 128 127 229
8368 1 129 127 130
8369 3 129 127 208
8370 4 129 127 225
8371 3 129 127 228
8372 2 129 127 229
8373 3 130 127 208
8374 3 130 127 225
8375 1 130 127 228
8376 1 130 127 229
8377 1 208 127 225
8378 2 208 127 228
8379 1 208 127 229
8380 1 225 127 228
8381 2 225 127 229
8382 1 228 127 229
8383 1 26 128 27
8384 2 26 128 30
8385 1 26 128 47
8386 1 26 128 125
8387 2 26 128 126
8388 3 26 128 127
8389 3 26 128 129
8390 4 26 128 130
8391 1 26 128 145
8392 3 26 128 147
8393 3 26 128 149
8394 1 27 128 30
8395 2 27 128 47
8396 1 27 128 125
8397 3 27 128 126
8398 2 27 128 127
8399 1 27 128 129
8400 3 27 128 130
8401 3 27 128 145
8402 4 27 128 147
8403 3 27 128 149
8404 1 30 128 47
8405 3 30 128 125
8406 4 30 128 126
8407 3 30 128 127
8408 1 30 128 129
8409 2 30 128 130
8410 3 30 128 145
8411 3 30 128 147
8412 1 30 128 149
8413 3 47 128 125
8414 3 47 128 126
8415 4 47 128 127
8416 3 47 128 129
8417 3 47 128 130
8418 1 47 128 145
8419 2 47 128 147
8420 1 47 128 149
8421 1 125 128 126
8422 1 125 128 127
8423 2 125 128 129
8424 3 125 128 130
8425 2 125 128 145
8426 3 125 128 147
8427 4 125 128 149
8428 1 126 128 127
8429 3 126 128 129
8430 2 126 128 130
8431 1 126 128 145
8432 1 126 128 147
8433 3 126 128 149
8434 1 127 128 129
8435 1 127 128 130
8436 3 127 128 145
8437 2 127 128 147
8438 3 127 128 149
8439 1 129 128 130
8440 4 129 128 145
8441 3 129 128 147
8442 2 129 128 149
8443 3 130 128 145
8444 1 130 128 147
8445 1 130 128 149
8446 1 145 128 147
8447 2 145 128 149
8448 1 147 128 149
8449 1 10 129 27
8450 2 10 129 30
8451 1 10 129 31
8452 1 10 129 108
8453 2 10 129 110
8454 1 10 129 112
8455 3 10 129 127
8456 3 10 129 128
8457 4 10 129 130
8458 3 10 129 131
8459 3 10 129 132
8460 1 27 129 30
8461 2 27 129 31
8462 1 27 129 108
8463 3 27 129 110
8464 3 27 129 112
8465 2 27 129 127
8466 1 27 129 128
8467 3 27 129 130
8468 4 27 129 131
8469 3 27 129 132
8470 1 30 129 31
8471 3 30 129 108
8472 4 30 129 110
8473 3 30 129 112
8474 3 30 129 127
8475 1 30 129 128
8476 2 30 129 130
8477 3 30 129 131
8478 1 30 129 132
8479 3 31 129 108
8480 3 31 129 110
8481 1 31 129 112
8482 4 31 129 127
8483 3 31 129 128
8484 3 31 129 130
8485 2 31 129 131
8486 1 31 129 132
8487 1 108 129 110
8488 2 108 129 112
8489 1 108 129 127
8490 2 108 129 128
8491 3 108 129 130
8492 3 108 129 131
8493 4 108 129 132
8494 1 110 129 112
8495 1 110 129 127
8496 3 110 129 128
8497 2 110 129 130
8498 1 110 129 131
8499 3 110 129 132
8500 3 112 129 127
8501 4 112 129 128
8502 3 112 129 130
8503 1 112 129 131
8504 2 112 129 132
8505 1 127 129 128
8506 1 127 129 130
8507 2 127 129 131
8508 3 127 129 132
8509 1 128 129 130
8510 3 128 129 131
8511 2 128 129 132
8512 1 130 129 131
8513 1 130 129 132
8514 1 131 129 132
8515 1 127 130 128
8516 1 127 130 129
8517 2 127 130 131
8518 3 127 130 132
8519 2 127 130 147
8520 3 127 130 149
8521 4 127 130 151
8522 1 127 130 228
8523 1 127 130 229
8524 3 127 130 232
8525 3 127 130 249
8526 1 128 130 129
8527 3 128 130 131
8528 2 128 130 132
8529 1 128 130 147
8530 1 128 130 149
8531 3 128 130 151
8532 2 128 130 228
8533 3 128 130 229
8534 4 128 130 232
8535 3 128 130 249
8536 1 129 130 131
8537 1 129 130 132
8538 3 129 130 147
8539 2 129 130 149
8540 3 129 130 151
8541 3 129 130 228
8542 2 129 130 229
8543 3 129 130 232
8544 4 129 130 249
8545 1 131 130 132
8546 4 131 130 147
8547 3 131 130 149
8548 2 131 130 151
8549 3 131 130 228
8550 1 131 130 229
8551 1 131 130 232
8552 3 131 130 249
8553 3 132 130 147
8554 1 132 130 149
8555 1 132 130 151
8556 4 132 130 228
8557 3 132 130 229
8558 2 132 130 232
8559 3 132 130 249
8560 1 147 130 149
8561 2 147 130 151
8562 1 147 130 228
8563 3 147 130 229
8564 3 147 130 232
8565 1 147 130 249
8566 1 149 130 151
8567 3 149 130 228
8568 4 149 130 229
8569 3 149 130 232
8570 2 149 130 249
8571 3 151 130 228
8572 3 151 130 229
8573 1 151 130 232
8574 1 151 130 249
8575 1 228 130 229
8576 2 228 130 232
8577 1 228 130 249
8578 1 229 130 232
8579 2 229 130 249
8580 1 232 130 249
8581 1 110 131 112
8582 2 110 131 114
8583 1 110 131 129
8584 2 110 131 130
8585 3 110 131 132
8586 3 110 131 133
8587 4 110 131 134
8588 1 110 131 212
8589 1 110 131 229
8590 3 110 131 232
8591 3 110 131 233
8592 1 112 131 114
8593 1 112 131 129
8594 3 112 131 130
8595 2 112 131 132
8596 1 112 131 133
8597 3 112 131 134
8598 2 112 131 212
8599 3 112 131 229
8600 4 112 131 232
8601 3 112 131 233
8602 3 114 131 129
8603 4 114 131 130
8604 3 114 131 132
8605 1 114 131 133
8606 2 114 131 134
8607 1 114 131 212
8608 3 114 131 229
8609 3 114 131 232
8610 1 114 131 233
8611 1 129 131 130
8612 1 129 131 132
8613 2 129 131 133
8614 3 129 131 134
8615 3 129 131 212
8616 2 129 131 229
8617 3 129 131 232
8618 4 129 131 233
8619 1 130 131 132
8620 3 130 131 133
8621 2 130 131 134
8622 3 130 131 212
8623 1 130 131 229
8624 1 130 131 232
8625 3 130 131 233
8626 1 132 131 133
8627 1 132 131 134
8628 4 132 131 212
8629 3 132 131 229
8630 2 132 131 232
8631 3 132 131 233
8632 1 133 131 134
8633 3 133 131 212
8634 4 133 131 229
8635 3 133 131 232
8636 2 133 131 233
8637 3 134 131 212
8638 3 134 131 229
8639 1 134 131 232
8640 1 134 131 233
8641 1 212 131 229
8642 2 212 131 232
8643 1 212 131 233
8644 1 229 131 232
8645 2 229 131 233
8646 1 232 131 233
8647 1 30 132 31
8648 2 30 132 34
8649 1 30 132 51
8650 1 30 132 129
8651 2 30 132 130
8652 3 30 132 131
8653 3 30 132 133
8654 4 30 132 134
8655 1 30 132 149
8656 3 30 132 151
8657 3 30 132 153
8658 1 31 132 34
8659 2 31 132 51
8660 1 31 132 129
8661 3 31 132 130
8662 2 31 132 131
8663 1 31 132 133
8664 3 31 132 134
8665 3 31 132 149
8666 4 31 132 151
8667 3 31 132 153
8668 1 34 132 51
8669 3 34 132 129
8670 4 34 132 130
8671 3 34 132 131
8672 1 34 132 133
8673 2 34 132 134
8674 3 34 132 149
8675 3 34 132 151
8676 1 34 132 153
8677 3 51 132 129
8678 3 51 132 130
8679 4 51 132 131
8680 3 51 132 133
8681 3 51 132 134
8682 1 51 132 149
8683 2 51 132 151
8684 1 51 132 153
8685 1 129 132 130
8686 1 129 132 131
8687 2 129 132 133
8688 3 129 132 134
8689 2 129 132 149
8690 3 129 132 151
8691 4 129 132 153
8692 1 130 132 131
8693 3 130 132 133
8694 2 130 132 134
8695 1 130 132 149
8696 1 130 132 151
8697 3 130 132 153
8698 1 131 132 133
8699 1 131 132 134
8700 3 131 132 149
8701 2 131 132 151
8702 3 131 132 153
8703 1 133 132 134
8704 4 133 132 149
8705 3 133 132 151
8706 2 133 132 153
8707 3 134 132 149
8708 1 134 132 151
8709 1 134 132 153
8710 1 149 132 151
8711 2 149 132 153
8712 1 151 132 153
8713 1 14 133 31
8714 2 14 133 34
8715 1 14 133 35
8716 1 14 133 112
8717 2 14 133 114
8718 1 14 133 116
8719 3 14 133 131
8720 3 14 133 132
8721 4 14 133 134
8722 3 14 133 135
8723 3 14 133 136
8724 1 31 133 34
8725 2 31 133 35
8726 1 31 133 112
8727 3 31 133 114
8728 3 31 133 116
8729 2 31 133 131
8730 1 31 133 132
8731 3 31 133 134
8732 4 31 133 135
8733 3 31 133 136
8734 1 34 133 35
8735 3 34 133 112
8736 4 34 133 114
8737 3 34 133 116
8738 3 34 133 131
8739 1 34 133 132
8740 2 34 133 134
8741 3 34 133 135
8742 1 34 133 136
8743 3 35 133 112
8744 3 35 133 114
8745 1 35 133 116
8746 4 35 133 131
8747 3 35 133 132
8748 3 35 133 134
8749 2 35 133 135
8750 1 35 133 136
8751 1 112 133 114
8752 2 112 133 116
8753 1 112 133 131
8754 2 112 133 132
8755 3 112 133 134
8756 3 112 133 135
8757 4 112 133 136
8758 1 114 133 116
8759 1 114 133 131
8760 3 114 133 132
8761 2 114 133 134
8762 1 114 133 135
8763 3 114 133 136
8764 3 116 133 131
8765 4 116 133 132
8766 3 116 133 134
8767 1 116 133 135
8768 2 116 133 136
8769 1 131 133 132
8770 1 131 133 134
8771 2 131 133 135
8772 3 131 133 136
8773 1 132 133 134
8774 3 132 133 135
8775 2 132 133 136
8776 1 134 133 135
8777 1 134 133 136
8778 1 135 133 136
8779 1 131 134 132
8780 1 131 134 133
8781 2 131 134 135
8782 3 131 134 136
8783 2 131 134 151
8784 3 131 134 153
8785 4 131 134 155
8786 1 131 134 232
8787 1 131 134 233
8788 3 131 134 236
8789 3 131 134 253
8790 1 132 134 133
8791 3 132 134 135
8792 2 132 134 136
8793 1 132 134 151
8794 1 132 134 153
8795 3 132 134 155
8796 2 132 134 232
8797 3 132 134 233
8798 4 132 134 236
8799 3 132 134 253
8800 1 133 134 135
8801 1 133 134 136
8802 3 133 134 151
8803 2 133 134 153
8804 3 133 134 155
8805 3 133 134 232
8806 2 133 134 233
8807 3 133 134 236
8808 4 133 134 253
8809 1 135 134 136
8810 4 135 134 151
8811 3 135 134 153
8812 2 135 134 155
8813 3 135 134 232
8814 1 135 134 233
8815 1 135 134 236
8816 3 135 134 253
8817 3 136 134 151
8818 1 136 134 153
8819 1 136 134 155
8820 4 136 134 232
8821 3 136 134 233
8822 2 136 134 236
8823 3 136 134 253
8824 1 151 134 153
8825 2 151 134 155
8826 1 151 134 232
8827 3 151 134 233
8828 3 151 134 236
8829 1 151 134 253
8830 1 153 134 155
8831 3 153 134 232
8832 4 153 134 233
8833 3 153 134 236
8834 2 153 134 253
8835 3 155 134 232
8836 3 155 134 233
8837 1 155 134 236
8838 1 155 134 253
8839 1 232 134 233
8840 2 232 134 236
8841 1 232 134 253
8842 1 233 134 236
8843 2 233 134 253
8844 1 236 134 253
8845 1 114 135 116
8846 2 114 135 118
8847 1 114 135 133
8848 2 114 135 134
8849 3 114 135 136
8850 3 114 135 137
8851 4 114 135 138
8852 1 114 135 216
8853 1 114 135 233
8854 3 114 135 236
8855 3 114 135 237
8856 1 116 135 118
8857 1 116 135 133
8858 3 116 135 134
8859 2 116 135 136
8860 1 116 135 137
8861 3 116 135 138
8862 2 116 135 216
8863 3 116 135 233
8864 4 116 135 236
8865 3 116 135 237
8866 3 118 135 133
8867 4 118 135 134
8868 3 118 135 136
8869 1 118 135 137
8870 2 118 135 138
8871 1 118 135 216
8872 3 118 135 233
8873 3 118 135 236
8874 1 118 135 237
8875 1 133 135 134
8876 1 133 135 136
8877 2 133 135 137
8878 3 133 135 138
8879 3 133 135 216
8880 2 133 135 233
8881 3 133 135 236
8882 4 133 135 237
8883 1 134 135 136
8884 3 134 135 137
8885 2 134 135 138
8886 3 134 135 216
8887 1 134 135 233
8888 1 134 135 236
8889 3 134 135 237
8890 1 136 135 137
8891 1 136 135 138
8892 4 136 135 216
8893 3 136 135 233
8894 2 136 135 236
8895 3 136 135 237
8896 1 137 135 138
8897 3 137 135 216
8898 4 137 135 233
8899 3 137 135 236
8900 2 137 135 237
8901 3 138 135 216
8902 3 138 135 233
8903 1 138 135 236
8904 1 138 135 237
8905 1 216 135 233
8906 2 216 135 236
8907 1 216 135 237
8908 1 233 135 236
8909 2 233 135 237
8910 1 236 135 237
8911 1 34 136 35
8912 2 34 136 38
8913 1 34 136 55
8914 1 34 136 133
8915 2 34 136 134
8916 3 34 136 135
8917 3 34 136 137
8918 4 34 136 138
8919 1 34 136 153
8920 3 34 136 155
8921 3 34 136 157
8922 1 35 136 38
8923 2 35 136 55
8924 1 35 136 133
8925 3 35 136 134
8926 2 35 136 135
8927 1 35 136 137
8928 3 35 136 138
8929 3 35 136 153
8930 4 35 136 155
8931 3 35 136 157
8932 1 38 136 55
8933 3 38 136 133
8934 4 38 136 134
8935 3 38 136 135
8936 1 38 136 137
8937 2 38 136 138
8938 3 38 136 153
8939 3 38 136 155
8940 1 38 136 157
8941 3 55 136 133
8942 3 55 136 134
8943 4 55 136 135
8944 3 55 136 137
8945 3 55 136 138
8946 1 55 136 153
8947 2 55 136 155
8948 1 55 136 157
8949 1 133 136 134
8950 1 133 136 135
8951 2 133 136 137
8952 3 133 136 138
8953 2 133 136 153
8954 3 133 136 155
8955 4 133 136 157
8956 1 134 136 135
8957 3 134 136 137
8958 2 134 136 138
8959 1 134 136 153
8960 1 134 136 155
8961 3 134 136 157
8962 1 135 136 137
8963 1 135 136 138
8964 3 135 136 153
8965 2 135 136 155
8966 3 135 136 157
8967 1 137 136 138
8968 4 137 136 153
8969 3 137 136 155
8970 2 137 136 157
8971 3 138 136 153
8972 1 138 136 155
8973 1 138 136 157
8974 1 153 136 155
8975 2 153 136 157
8976 1 155 136 157
8977 1 18 137 35
8978 2 18 137 38
8979 1 18 137 39
8980 1 18 137 116
8981 2 18 137 118
8982 1 18 137 120
8983 3 18 137 135
8984 3 18 137 136
8985 4 18 137 138
8986 3 18 137 139
8987 3 18 137 140
8988 1 35 137 38
8989 2 35 137 39
8990 1 35 137 116
8991 3 35 137 118
8992 3 35 137 120
8993 2 35 137 135
8994 1 35 137 136
8995 3 35 137 138
8996 4 35 137 139
8997 3 35 137 140
8998 1 38 137 39
8999 3 38 137 116
9000 4 38 137 118
9001 3 38 137 120
9002 3 38 137 135
9003 1 38 137 136
9004 2 38 137 138
9005 3 38 137 139
9006 1 38 137 140
9007 3 39 137 116
9008 3 39 137 118
9009 1 39 137 120
9010 4 39 137 135
9011 3 39 137 136
9012 3 39 137 138
9013 2 39 137 139
9014 1 39 137 140
9015 1 116 137 118
9016 2 116 137 120
9017 1 116 137 135
9018 2 116 137 136
9019 3 116 137 138
9020 3 116 137 139
9021 4 116 137 140
9022 1 118 137 120
9023 1 118 137 135
9024 3 118 137 136
9025 2 118 137 138
9026 1 118 137 139
9027 3 118 137 140
9028 3 120 137 135
9029 4 120 137 136
9030 3 120 137 138
9031 1 120 137 139
9032 2 120 137 140
9033 1 135 137 136
9034 1 135 137 138
9035 2 135 137 139
9036 3 135 137 140
9037 1 136 137 138
9038 3 136 137 139
9039 2 136 137 140
9040 1 138 137 139
9041 1 138 137 140
9042 1 139 137 140
9043 1 135 138 136
9044 1 135 138 137
9045 2 135 138 139
9046 3 135 138 140
9047 2 135 138 155
9048 3 135 138 157
9049 4 135 138 159
9050 1 135 138 236
9051 1 135 138 237
9052 3 135 138 240
9053 3 135 138 257
9054 1 136 138 137
9055 3 136 138 139
9056 2 136 138 140
9057 1 136 138 155
9058 1 136 138 157
9059 3 136 138 159
9060 2 136 138 236
9061 3 136 138 237
9062 4 136 138 240
9063 3 136 138 257
9064 1 137 138 139
9065 1 137 138 140
9066 3 137 138 155
9067 2 137 138 157
9068 3 137 138 159
9069 3 137 138 236
9070 2 137 138 237
9071 3 137 138 240
9072 4 137 138 257
9073 1 139 138 140
9074 4 139 138 155
9075 3 139 138 157
9076 2 139 138 159
9077 3 139 138 236
9078 1 139 138 237
9079 1 139 138 240
9080 3 139 138 257
9081 3 140 138 155
9082 1 140 138 157
9083 1 140 138 159
9084 4 140 138 236
9085 3 140 138 237
9086 2 140 138 240
9087 3 140 138 257
9088 1 155 138 157
9089 2 155 138 159
9090 1 155 138 236
9091 3 155 138 237
9092 3 155 138 240
9093 1 155 138 257
9094 1 157 138 159
9095 3 157 138 236
9096 4 157 138 237
9097 3 157 138 240
9098 2 157 138 257
9099 3 159 138 236
9100 3 159 138 237
9101 1 159 138 240
9102 1 159 138 257
9103 1 236 138 237
9104 2 236 138 240
9105 1 236 138 257
9106 1 237 138 240
9107 2 237 138 257
9108 1 240 138 257
9109 1 118 139 120
9110 2 118 139 102
9111 1 118 139 137
9112 2 118 139 138
9113 3 118 139 140
9114 3 118 139 121
9115 4 118 139 122
9116 1 118 139 220
9117 1 118 139 237
9118 3 118 139 240
9119 3 118 139 221
9120 1 120 139 102
9121 1 120 139 137
9122 3 120 139 138
9123 2 120 139 140
9124 1 120 139 121
9125 3 120 139 122
9126 2 120 139 220
9127 3 120 139 237
9128 4 120 139 240
9129 3 120 139 221
9130 3 102 139 137
9131 4 102 139 138
9132 3 102 139 140
9133 1 102 139 121
9134 2 102 139 122
9135 1 102 139 220
9136 3 102 139 237
9137 3 102 139 240
9138 1 102 139 221
9139 1 137 139 138
9140 1 137 139 140
9141 2 137 139 121
9142 3 137 139 122
9143 3 137 139 220
9144 2 137 139 237
9145 3 137 139 240
9146 4 137 139 221
9147 1 138 139 140
9148 3 138 139 121
9149 2 138 139 122
9150 3 138 139 220
9151 1 138 139 237
9152 1 138 139 240
9153 3 138 139 221
9154 1 140 139 121
9155 1 140 139 122
9156 4 140 139 220
9157 3 140 139 237
9158 2 140 139 240
9159 3 140 139 221
9160 1 121 139 122
9161 3 121 139 220
9162 4 121 139 237
9163 3 121 139 240
9164 2 121 139 221
9165 3 122 139 220
9166 3 122 139 237
9167 1 122 139 240
9168 1 122 139 221
9169 1 220 139 237
9170 2 220 139 240
9171 1 220 139 221
9172 1 237 139 240
9173 2 237 139 221
9174 1 240 139 221
9175 1 38 140 39
9176 2 38 140 22
9177 1 38 140 59
9178 1 38 140 137
9179 2 38 140 138
9180 3 38 140 139
9181 3 38 140 121
9182 4 38 140 122
9183 1 38 140 157
9184 3 38 140 159
9185 3 38 140 141
9186 1 39 140 22
9187 2 39 140 59
9188 1 39 140 137
9189 3 39 140 138
9190 2 39 140 139
9191 1 39 140 121
9192 3 39 140 122
9193 3 39 140 157
9194 4 39 140 159
9195 3 39 140 141
9196 1 22 140 59
9197 3 22 140 137
9198 4 22 140 138
9199 3 22 140 139
9200 1 22 140 121
9201 2 22 140 122
9202 3 22 140 157
9203 3 22 140 159
9204 1 22 140 141
9205 3 59 140 137
9206 3 59 140 138
9207 4 59 140 139
9208 3 59 140 121
9209 3 59 140 122
9210 1 59 140 157
9211 2 59 140 159
9212 1 59 140 141
9213 1 137 140 138
9214 1 137 140 139
9215 2 137 140 121
9216 3 137 140 122
9217 2 137 140 157
9218 3 137 140 159
9219 4 137 140 141
9220 1 138 140 139
9221 3 138 140 121
9222 2 138 140 122
9223 1 138 140 157
9224 1 138 140 159
9225 3 138 140 141
9226 1 139 140 121
9227 1 139 140 122
9228 3 139 140 157
9229 2 139 140 159
9230 3 139 140 141
9231 1 121 140 122
9232 4 121 140 157
9233 3 121 140 159
9234 2 121 140 141
9235 3 122 140 157
9236 1 122 140 159
9237 1 122 140 141
9238 1 157 140 159
9239 2 157 140 141
9240 1 159 140 141
9241 1 22 141 59
9242 2 22 141 42
9243 1 22 141 43
9244 1 22 141 140
9245 2 22 141 122
9246 1 22 141 124
9247 3 22 141 159
9248 3 22 141 160
9249 4 22 141 142
9250 3 22 141 143
9251 3 22 141 144
9252 1 59 141 42
9253 2 59 141 43
9254 1 59 141 140
9255 3 59 141 122
9256 3 59 141 124
9257 2 59 141 159
9258 1 59 141 160
9259 3 59 141 142
9260 4 59 141 143
9261 3 59 141 144
9262 1 42 141 43
9263 3 42 141 140
9264 4 42 141 122
9265 3 42 141 124
9266 3 42 141 159
9267 1 42 141 160
9268 2 42 141 142
9269 3 42 141 143
9270 1 42 141 144
9271 3 43 141 140
9272 3 43 141 122
9273 1 43 141 124
9274 4 43 141 159
9275 3 43 141 160
9276 3 43 141 142
9277 2 43 141 143
9278 1 43 141 144
9279 1 140 141 122
9280 2 140 141 124
9281 1 140 141 159
9282 2 140 141 160
9283 3 140 141 142
9284 3 140 141 143
9285 4 140 141 144
9286 1 122 141 124
9287 1 122 141 159
9288 3 122 141 160
9289 2 122 141 142
9290 1 122 141 143
9291 3 122 141 144
9292 3 124 141 159
9293 4 124 141 160
9294 3 124 141 142
9295 1 124 141 143
9296 2 124 141 144
9297 1 159 141 160
9298 1 159 141 142
9299 2 159 141 143
9300 3 159 141 144
9301 1 160 141 142
9302 3 160 141 143
9303 2 160 141 144
9304 1 142 141 143
9305 1 142 141 144
9306 1 143 141 144
9307 1 159 142 160
9308 1 159 142 141
9309 2 159 142 143
9310 3 159 142 144
9311 2 159 142 179
9312 3 159 142 161
9313 4 159 142 163
9314 1 159 142 260
9315 1 159 142 241
9316 3 159 142 244
9317 3 159 142 261
9318 1 160 142 141
9319 3 160 142 143
9320 2 160 142 144
9321 1 160 142 179
9322 1 160 142 161
9323 3 160 142 163
9324 2 160 142 260
9325 3 160 142 241
9326 4 160 142 244
9327 3 160 142 261
9328 1 141 142 143
9329 1 141 142 144
9330 3 141 142 179
9331 2 141 142 161
9332 3 141 142 163
9333 3 141 142 260
9334 2 141 142 241
9335 3 141 142 244
9336 4 141 142 261
9337 1 143 142 144
9338 4 143 142 179
9339 3 143 142 161
9340 2 143 142 163
9341 3 143 142 260
9342 1 143 142 241
9343 1 143 142 244
9344 3 143 142 261
9345 3 144 142 179
9346 1 144 142 161
9347 1 144 142 163
9348 4 144 142 260
9349 3 144 142 241
9350 2 144 142 244
9351 3 144 142 261
9352 1 179 142 161
9353 2 179 142 163
9354 1 179 142 260
9355 3 179 142 241
9356 3 179 142 244
9357 1 179 142 261
9358 1 161 142 163
9359 3 161 142 260
9360 4 161 142 241
9361 3 161 142 244
9362 2 161 142 261
9363 3 163 142 260
9364 3 163 142 241
9365 1 163 142 244
9366 1 163 142 261
9367 1 260 142 241
9368 2 260 142 244
9369 1 260 142 261
9370 1 241 142 244
9371 2 241 142 261
9372 1 244 142 261
9373 1 122 143 124
9374 2 122 143 126
9375 1 122 143 141
9376 2 122 143 142
9377 3 122 143 144
9378 3 122 143 145
9379 4 122 143 146
9380 1 122 143 224
9381 1 122 143 241
9382 3 122 143 244
9383 3 122 143 245
9384 1 124 143 126
9385 1 124 143 141
9386 3 124 143 142
9387 2 124 143 144
9388 1 124 143 145
9389 3 124 143 146
9390 2 124 143 224
9391 3 124 143 241
9392 4 124 143 244
9393 3 124 143 245
9394 3 126 143 141
9395 4 126 143 142
9396 3 126 143 144
9397 1 126 143 145
9398 2 126 143 146
9399 1 126 143 224
9400 3 126 143 241
9401 3 126 143 244
9402 1 126 143 245
9403 1 141 143 142
9404 1 141 143 144
9405 2 141 143 145
9406 3 141 143 146
9407 3 141 143 224
9408 2 141 143 241
9409 3 141 143 244
9410 4 141 143 245
9411 1 142 143 144
9412 3 142 143 145
9413 2 142 143 146
9414 3 142 143 224
9415 1 142 143 241
9416 1 142 143 244
9417 3 142 143 245
9418 1 144 143 145
9419 1 144 143 146
9420 4 144 143 224
9421 3 144 143 241
9422 2 144 143 244
9423 3 144 143 245
9424 1 145 143 146
9425 3 145 143 224
9426 4 145 143 241
9427 3 145 143 244
9428 2 145 143 245
9429 3 146 143 224
9430 3 146 143 241
9431 1 146 143 244
9432 1 146 143 245
9433 1 224 143 241
9434 2 224 143 244
9435 1 224 143 245
9436 1 241 143 244
9437 2 241 143 245
9438 1 244 143 245
9439 1 42 144 43
9440 2 42 144 46
9441 1 42 144 63
9442 1 42 144 141
9443 2 42 144 142
9444 3 42 144 143
9445 3 42 144 145
9446 4 42 144 146
9447 1 42 144 161
9448 3 42 144 163
9449 3 42 144 165
9450 1 43 144 46
9451 2 43 144 63
9452 1 43 144 141
9453 3 43 144 142
9454 2 43 144 143
9455 1 43 144 145
9456 3 43 144 146
9457 3 43 144 161
9458 4 43 144 163
9459 3 43 144 165
9460 1 46 144 63
9461 3 46 144 141
9462 4 46 144 142
9463 3 46 144 143
9464 1 46 144 145
9465 2 46 144 146
9466 3 46 144 161
9467 3 46 144 163
9468 1 46 144 165
9469 3 63 144 141
9470 3 63 144 142
9471 4 63 144 143
9472 3 63 144 145
9473 3 63 144 146
9474 1 63 144 161
9475 2 63 144 163
9476 1 63 144 165
9477 1 141 144 142
9478 1 141 144 143
9479 2 141 144 145
9480 3 141 144 146
9481 2 141 144 161
9482 3 141 144 163
9483 4 141 144 165
9484 1 142 144 143
9485 3 142 144 145
9486 2 142 144 146
9487 1 142 144 161
9488 1 142 144 163
9489 3 142 144 165
9490 1 143 144 145
9491 1 143 144 146
9492 3 143 144 161
9493 2 143 144 163
9494 3 143 144 165
9495 1 145 144 146
9496 4 145 144 161
9497 3 145 144 163
9498 2 145 144 165
9499 3 146 144 161
9500 1 146 144 163
9501 1 146 144 165
9502 1 161 144 163
9503 2 161 144 165
9504 1 163 144 165
9505 1 26 145 43
9506 2 26 145 46
9507 1 26 145 47
9508 1 26 145 124
9509 2 26 145 126
9510 1 26 145 128
9511 3 26 145 143
9512 3 26 145 144
9513 4 26 145 146
9514 3 26 145 147
9515 3 26 145 148
9516 1 43 145 46
9517 2 43 145 47
9518 1 43 145 124
9519 3 43 145 126
9520 3 43 145 128
9521 2 43 145 143
9522 1 43 145 144
9523 3 43 145 146
9524 4 43 145 147
9525 3 43 145 148
9526 1 46 145 47
9527 3 46 145 124
9528 4 46 145 126
9529 3 46 145 128
9530 3 46 145 143
9531 1 46 145 144
9532 2 46 145 146
9533 3 46 145 147
9534 1 46 145 148
9535 3 47 145 124
9536 3 47 145 126
9537 1 47 145 128
9538 4 47 145 143
9539 3 47 145 144
9540 3 47 145 146
9541 2 47 145 147
9542 1 47 145 148
9543 1 124 145 126
9544 2 124 145 128
9545 1 124 145 143
9546 2 124 145 144
9547 3 124 145 146
9548 3 124 145 147
9549 4 124 145 148
9550 1 126 145 128
9551 1 126 145 143
9552 3 126 145 144
9553 2 126 145 146
9554 1 126 145 147
9555 3 126 145 148
9556 3 128 145 143
9557 4 128 145 144
9558 3 128 145 146
9559 1 128 145 147
9560 2 128 145 148
9561 1 143 145 144
9562 1 143 145 146
9563 2 143 145 147
9564 3 143 145 148
9565 1 144 145 146
9566 3 144 145 147
9567 2 144 145 148
9568 1 146 145 147
9569 1 146 145 148
9570 1 147 145 148
9571 1 143 146 144
9572 1 143 146 145
9573 2 143 146 147
9574 3 143 146 148
9575 2 143 146 163
9576 3 143 146 165
9577 4 143 146 167
9578 1 143 146 244
9579 1 143 146 245
9580 3 143 146 248
9581 3 143 146 265
9582 1 144 146 145
9583 3 144 146 147
9584 2 144 146 148
9585 1 144 146 163
9586 1 144 146 165
9587 3 144 146 167
9588 2 144 146 244
9589 3 144 146 245
9590 4 144 146 248
9591 3 144 146 265
9592 1 145 146 147
9593 1 145 146 148
9594 3 145 146 163
9595 2 145 146 165
9596 3 145 146 167
9597 3 145 146 244
9598 2 145 146 245
9599 3 145 146 248
9600 4 145 146 265
9601 1 147 146 148
9602 4 147 146 163
9603 3 147 146 165
9604 2 147 146 167
9605 3 147 146 244
9606 1 147 146 245
9607 1 147 146 248
9608 3 147 146 265
9609 3 148 146 163
9610 1 148 146 165
9611 1 148 146 167
9612 4 148 146 244
9613 3 148 146 245
9614 2 148 146 248
9615 3 148 146 265
9616 1 163 146 165
9617 2 163 146 167
9618 1 163 146 244
9619 3 163 146 245
9620 3 163 146 248
9621 1 163 146 265
9622 1 165 146 167
9623 3 165 146 244
9624 4 165 146 245
9625 3 165 146 248
9626 2 165 146 265
9627 3 167 146 244
9628 3 167 146 245
9629 1 167 146 248
9630 1 167 146 265
9631 1 244 146 245
9632 2 244 146 248
9633 1 244 146 265
9634 1 245 146 248
9635 2 245 146 265
9636 1 248 146 265
9637 1 126 147 128
9638 2 126 147 130
9639 1 126 147 145
9640 2 126 147 146
9641 3 126 147 148
9642 3 126 147 149
9643 4 126 147 150
9644 1 126 147 228
9645 1 126 147 245
9646 3 126 147 248
9647 3 126 147 249
9648 1 128 147 130
9649 1 128 147 145
9650 3 128 147 146
9651 2 128 147 148
9652 1 128 147 149
9653 3 128 147 150
9654 2 128 147 228
9655 3 128 147 245
9656 4 128 147 248
9657 3 128 147 249
9658 3 130 147 145
9659 4 130 147 146
9660 3 130 147 148
9661 1 130 147 149
9662 2 130 147 150
9663 1 130 147 228
9664 3 130 147 245
9665 3 130 147 248
9666 1 130 147 249
9667 1 145 147 146
9668 1 145 147 148
9669 2 145 147 149
9670 3 145 147 150
9671 3 145 147 228
9672 2 145 147 245
9673 3 145 147 248
9674 4 145 147 249
9675 1 146 147 148
9676 3 146 147 149
9677 2 146 147 150
9678 3 146 147 228
9679 1 146 147 245
9680 1 146 147 248
9681 3 146 147 249
9682 1 148 147 149
9683 1 148 147 150
9684 4 148 147 228
9685 3 148 147 245
9686 2 148 147 248
9687 3 148 147 249
9688 1 149 147 150
9689 3 149 147 228
9690 4 149 147 245
9691 3 149 147 248
9692 2 149 147 249
9693 3 150 147 228
9694 3 150 147 245
9695 1 150 147 248
9696 1 150 147 249
9697 1 228 147 245
9698 2 228 147 248
9699 1 228 147 249
9700 1 245 147 248
9701 2 245 147 249
9702 1 248 147 249
9703 1 46 148 47
9704 2 46 148 50
9705 1 46 148 67
9706 1 46 148 145
9707 2 46 148 146
9708 3 46 148 147
9709 3 46 148 149
9710 4 46 148 150
9711 1 46 148 165
9712 3 46 148 167
9713 3 46 148 169
9714 1 47 148 50
9715 2 47 148 67
9716 1 47 148 145
9717 3 47 148 146
9718 2 47 148 147
9719 1 47 148 149
9720 3 47 148 150
9721 3 47 148 165
9722 4 47 148 167
9723 3 47 148 169
9724 1 50 148 67
9725 3 50 148 145
9726 4 50 148 146
9727 3 50 148 147
9728 1 50 148 149
9729 2 50 148 150
9730 3 50 148 165
9731 3 50 148 167
9732 1 50 148 169
9733 3 67 148 145
9734 3 67 148 146
9735 4 67 148 147
9736 3 67 148 149
9737 3 67 148 150
9738 1 67 148 165
9739 2 67 148 167
9740 1 67 148 169
9741 1 145 148 146
9742 1 145 148 147
9743 2 145 148 149
9744 3 145 148 150
9745 2 145 148 165
9746 3 145 148 167
9747 4 145 148 169
9748 1 146 148 147
9749 3 146 148 149
9750 2 146 148 150
9751 1 146 148 165
9752 1 146 148 167
9753 3 146 148 169
9754 1 147 148 149
9755 1 147 148 150
9756 3 147 148 165
9757 2 147 148 167
9758 3 147 148 169
9759 1 149 148 150
9760 4 149 148 165
9761 3 149 148 167
9762 2 149 148 169
9763 3 150 148 165
9764 1 150 148 167
9765 1 150 148 169
9766 1 165 148 167
9767 2 165 148 169
9768 1 167 148 169
9769 1 30 149 47
9770 2 30 149 50
9771 1 30 149 51
9772 1 30 149 128
9773 2 30 149 130
9774 1 30 149 132
9775 3 30 149 147
9776 3 30 149 148
9777 4 30 149 150
9778 3 30 149 151
9779 3 30 149 152
9780 1 47 149 50
9781 2 47 149 51
9782 1 47 149 128
9783 3 47 149 130
9784 3 47 149 132
9785 2 47 149 147
9786 1 47 149 148
9787 3 47 149 150
9788 4 47 149 151
9789 3 47 149 152
9790 1 50 149 51
9791 3 50 149 128
9792 4 50 149 130
9793 3 50 149 132
9794 3 50 149 147
9795 1 50 149 148
9796 2 50 149 150
9797 3 50 149 151
9798 1 50 149 152
9799 3 51 149 128
9800 3 51 149 130
9801 1 51 149 132
9802 4 51 149 147
9803 3 51 149 148
9804 3 51 149 150
9805 2 51 149 151
9806 1 51 149 152
9807 1 128 149 130
9808 2 128 149 132
9809 1 128 149 147
9810 2 128 149 148
9811 3 128 149 150
9812 3 128 149 151
9813 4 128 149 152
9814 1 130 149 132
9815 1 130 149 147
9816 3 130 149 148
9817 2 130 149 150
9818 1 130 149 151
9819 3 130 149 152
9820 3 132 149 147
9821 4 132 149 148
9822 3 132 149 150
9823 1 132 149 151
9824 2 132 149 152
9825 1 147 149 148
9826 1 147 149 150
9827 2 147 149 151
9828 3 147 149 152
9829 1 148 149 150
9830 3 148 149 151
9831 2 148 149 152
9832 1 150 149 151
9833 1 150 149 152
9834 1 151 149 152
9835 1 147 150 148
9836 1 147 150 149
9837 2 147 150 151
9838 3 147 150 152
9839 2 147 150 167
9840 3 147 150 169
9841 4 147 150 171
9842 1 147 150 248
9843 1 147 150 249
9844 3 147 150 252
9845 3 147 150 269
9846 1 148 150 149
9847 3 148 150 151
9848 2 148 150 152
9849 1 148 150 167
9850 1 148 150 169
9851 3 148 150 171
9852 2 148 150 248
9853 3 148 150 249
9854 4 148 150 252
9855 3 148 150 269
9856 1 149 150 151
9857 1 149 150 152
9858 3 149 150 167
9859 2 149 150 169
9860 3 149 150 171
9861 3 149 150 248
9862 2 149 150 249
9863 3 149 150 252
9864 4 149 150 269
9865 1 151 150 152
9866 4 151 150 167
9867 3 151 150 169
9868 2 151 150 171
9869 3 151 150 248
9870 1 151 150 249
9871 1 151 150 252
9872 3 151 150 269
9873 3 152 150 167
9874 1 152 150 169
9875 1 152 150 171
9876 4 152 150 248
9877 3 152 150 249
9878 2 152 150 252
9879 3 152 150 269
9880 1 167 150 169
9881 2 167 150 171
9882 1 167 150 248
9883 3 167 150 249
9884 3 167 150 252
9885 1 167 150 269
9886 1 169 150 171
9887 3 169 150 248
9888 4 169 150 249
9889 3 169 150 252
9890 2 169 150 269
9891 3 171 150 248
9892 3 171 150 249
9893 1 171 150 252
9894 1 171 150 269
9895 1 248 150 249
9896 2 248 150 252
9897 1 248 150 269
9898 1 249 150 252
9899 2 249 150 269
9900 1 252 150 269
9901 1 130 151 132
9902 2 130 151 134
9903 1 130 151 149
9904 2 130 151 150
9905 3 130 151 152
9906 3 130 151 153
9907 4 130 151 154
9908 1 130 151 232
9909 1 130 151 249
9910 3 130 151 252
9911 3 130 151 253
9912 1 132 151 134
9913 1 132 151 149
9914 3 132 151 150
9915 2 132 151 152
9916 1 132 151 153
9917 3 132 151 154
9918 2 132 151 232
9919 3 132 151 249
9920 4 132 151 252
9921 3 132 151 253
9922 3 134 151 149
9923 4 134 151 150
9924 3 134 151 152
9925 1 134 151 153
9926 2 134 151 154
9927 1 134 151 232
9928 3 134 151 249
9929 3 134 151 252
9930 1 134 151 253
9931 1 149 151 150
9932 1 149 151 152
9933 2 149 151 153
9934 3 149 151 154
9935 3 149 151 232
9936 2 149 151 249
9937 3 149 151 252
9938 4 149 151 253
9939 1 150 151 152
9940 3 150 151 153
9941 2 150 151 154
9942 3 150 151 232
9943 1 150 151 249
9944 1 150 151 252
9945 3 150 151 253
9946 1 152 151 153
9947 1 152 151 154
9948 4 152 151 232
9949 3 152 151 249
9950 2 152 151 252
9951 3 152 151 253
9952 1 153 151 154
9953 3 153 151 232
9954 4 153 151 249
9955 3 153 151 252
9956 2 153 151 253
9957 3 154 151 232
9958 3 154 151 249
9959 1 154 151 252
9960 1 154 151 253
9961 1 232 151 249
9962 2 232 151 252
9963 1 232 151 253
9964 1 249 151 252
9965 2 249 151 253
9966 1 252 151 253
9967 1 50 152 51
9968 2 50 152 54
9969 1 50 152 71
9970 1 50 152 149
9971 2 50 152 150
9972 3 50 152 151
9973 3 50 152 153
9974 4 50 152 154
9975 1 50 152 169
9976 3 50 152 171
9977 3 50 152 173
9978 1 51 152 54
9979 2 51 152 71
9980 1 51 152 149
9981 3 51 152 150
9982 2 51 152 151
9983 1 51 152 153
9984 3 51 152 154
9985 3 51 152 169
9986 4 51 152 171
9987 3 51 152 173
9988 1 54 152 71
9989 3 54 152 149
9990 4 54 152 150
9991 3 54 152 151
9992 1 54 152 153
9993 2 54 152 154
9994 3 54 152 169
9995 3 54 152 171
9996 1 54 152 173
9997 3 71 152 149
9998 3 71 152 150
9999 4 71 152 151
10000 3 71 152 153
10001 3 71 152 154
10002 1 71 152 169
10003 2 71 152 171
10004 1 71 152 173
10005 1 149 152 150
10006 1 149 152 151
10007 2 149 152 153
10008 3 149 152 154
10009 2 149 152 169
10010 3 149 152 171
10011 4 149 152 173
10012 1 150 152 151
10013 3 150 152 153
10014 2 150 152 154
10015 1 150 152 169
10016 1 150 152 171
10017 3 150 152 173
10018 1 151 152 153
10019 1 151 152 154
10020 3 151 152 169
10021 2 151 152 171
10022 3 151 152 173
10023 1 153 152 154
10024 4 153 152 169
10025 3 153 152 171
10026 2 153 152 173
10027 3 154 152 169
10028 1 154 152 171
10029 1 154 152 173
10030 1 169 152 171
10031 2 169 152 173
10032 1 171 152 173
10033 1 34 153 51
10034 2 34 153 54
10035 1 34 153 55
10036 1 34 153 132
10037 2 34 153 134
10038 1 34 153 136
10039 3 34 153 151
10040 3 34 153 152
10041 4 34 153 154
10042 3 34 153 155
10043 3 34 153 156
10044 1 51 153 54
10045 2 51 153 55
10046 1 51 153 132
10047 3 51 153 134
10048 3 51 153 136
10049 2 51 153 151
10050 1 51 153 152
10051 3 51 153 154
10052 4 51 153 155
10053 3 51 153 156
10054 1 54 153 55
10055 3 54 153 132
10056 4 54 153 134
10057 3 54 153 136
10058 3 54 153 151
10059 1 54 153 152
10060 2 54 153 154
10061 3 54 153 155
10062 1 54 153 156
10063 3 55 153 132
10064 3 55 153 134
10065 1 55 153 136
10066 4 55 153 151
10067 3 55 153 152
10068 3 55 153 154
10069 2 55 153 155
10070 1 55 153 156
10071 1 132 153 134
10072 2 132 153 136
10073 1 132 153 151
10074 2 132 153 152
10075 3 132 153 154
10076 3 132 153 155
10077 4 132 153 156
10078 1 134 153 136
10079 1 134 153 151
10080 3 134 153 152
10081 2 134 153 154
10082 1 134 153 155
10083 3 134 153 156
10084 3 136 153 151
10085 4 136 153 152
10086 3 136 153 154
10087 1 136 153 155
10088 2 136 153 156
10089 1 151 153 152
10090 1 151 153 154
10091 2 151 153 155
10092 3 151 153 156
10093 1 152 153 154
10094 3 152 153 155
10095 2 152 153 156
10096 1 154 153 155
10097 1 154 153 156
10098 1 155 153 156
10099 1 151 154 152
10100 1 151 154 153
10101 2 151 154 155
10102 3 151 154 156
10103 2 151 154 171
10104 3 151 154 173
10105 4 151 154 175
10106 1 151 154 252
10107 1 151 154 253
10108 3 151 154 256
10109 3 151 154 273
10110 1 152 154 153
10111 3 152 154 155
10112 2 152 154 156
10113 1 152 154 171
10114 1 152 154 173
10115 3 152 154 175
10116 2 152 154 252
10117 3 152 154 253
10118 4 152 154 256
10119 3 152 154 273
10120 1 153 154 155
10121 1 153 154 156
10122 3 153 154 171
10123 2 153 154 173
10124 3 153 154 175
10125 3 153 154 252
10126 2 153 154 253
10127 3 153 154 256
10128 4 153 154 273
10129 1 155 154 156
10130 4 155 154 171
10131 3 155 154 173
10132 2 155 154 175
10133 3 155 154 252
10134 1 155 154 253
10135 1 155 154 256
10136 3 155 154 273
10137 3 156 154 171
10138 1 156 154 173
10139 1 156 154 175
10140 4 156 154 252
10141 3 156 154 253
10142 2 156 154 256
10143 3 156 154 273
10144 1 171 154 173
10145 2 171 154 175
10146 1 171 154 252
10147 3 171 154 253
10148 3 171 154 256
10149 1 171 154 273
10150 1 173 154 175
10151 3 173 154 252
10152 4 173 154 253
10153 3 173 154 256
10154 2 173 154 273
10155 3 175 154 252
10156 3 175 154 253
10157 1 175 154 256
10158 1 175 154 273
10159 1 252 154 253
10160 2 252 154 256
10161 1 252 154 273
10162 1 253 154 256
10163 2 253 154 273
10164 1 256 154 273
10165 1 134 155 136
10166 2 134 155 138
10167 1 134 155 153
10168 2 134 155 154
10169 3 134 155 156
10170 3 134 155 157
10171 4 134 155 158
10172 1 134 155 236
10173 1 134 155 253
10174 3 134 155 256
10175 3 134 155 257
10176 1 136 155 138
10177 1 136 155 153
10178 3 136 155 154
10179 2 136 155 156
10180 1 136 155 157
10181 3 136 155 158
10182 2 136 155 236
10183 3 136 155 253
10184 4 136 155 256
10185 3 136 155 257
10186 3 138 155 153
10187 4 138 155 154
10188 3 138 155 156
10189 1 138 155 157
10190 2 138 155 158
10191 1 138 155 236
10192 3 138 155 253
10193 3 138 155 256
10194 1 138 155 257
10195 1 153 155 154
10196 1 153 155 156
10197 2 153 155 157
10198 3 153 155 158
10199 3 153 155 236
10200 2 153 155 253
10201 3 153 155 256
10202 4 153 155 257
10203 1 154 155 156
10204 3 154 155 157
10205 2 154 155 158
10206 3 154 155 236
10207 1 154 155 253
10208 1 154 155 256
10209 3 154 155 257
10210 1 156 155 157
10211 1 156 155 158
10212 4 156 155 236
10213 3 156 155 253
10214 2 156 155 256
10215 3 156 155 257
10216 1 157 155 158
10217 3 157 155 236
10218 4 157 155 253
10219 3 157 155 256
10220 2 157 155 257
10221 3 158 155 236
10222 3 158 155 253
10223 1 158 155 256
10224 1 158 155 257
10225 1 236 155 253
10226 2 236 155 256
10227 1 236 155 257
10228 1 253 155 256
10229 2 253 155 257
10230 1 256 155 257
10231 1 54 156 55
10232 2 54 156 58
10233 1 54 156 75
10234 1 54 156 153
10235 2 54 156 154
10236 3 54 156 155
10237 3 54 156 157
10238 4 54 156 158
10239 1 54 156 173
10240 3 54 156 175
10241 3 54 156 177
10242 1 55 156 58
10243 2 55 156 75
10244 1 55 156 153
10245 3 55 156 154
10246 2 55 156 155
10247 1 55 156 157
10248 3 55 156 158
10249 3 55 156 173
10250 4 55 156 175
10251 3 55 156 177
10252 1 58 156 75
10253 3 58 156 153
10254 4 58 156 154
10255 3 58 156 155
10256 1 58 156 157
10257 2 58 156 158
10258 3 58 156 173
10259 3 58 156 175
10260 1 58 156 177
10261 3 75 156 153
10262 3 75 156 154
10263 4 75 156 155
10264 3 75 156 157
10265 3 75 156 158
10266 1 75 156 173
10267 2 75 156 175
10268 1 75 156 177
10269 1 153 156 154
10270 1 153 156 155
10271 2 153 156 157
10272 3 153 156 158
10273 2 153 156 173
10274 3 153 156 175
10275 4 153 156 177
10276 1 154 156 155
10277 3 154 156 157
10278 2 154 156 158
10279 1 154 156 173
10280 1 154 156 175
10281 3 154 156 177
10282 1 155 156 157
10283 1 155 156 158
10284 3 155 156 173
10285 2 155 156 175
10286 3 155 156 177
10287 1 157 156 158
10288 4 157 156 173
10289 3 157 156 175
10290 2 157 156 177
10291 3 158 156 173
10292 1 158 156 175
10293 1 158 156 177
10294 1 173 156 175
10295 2 173 156 177
10296 1 175 156 177
10297 1 38 157 55
10298 2 38 157 58
10299 1 38 157 59
10300 1 38 157 136
10301 2 38 157 138
10302 1 38 157 140
10303 3 38 157 155
10304 3 38 157 156
10305 4 38 157 158
10306 3 38 157 159
10307 3 38 157 160
10308 1 55 157 58
10309 2 55 157 59
10310 1 55 157 136
10311 3 55 157 138
10312 3 55 157 140
10313 2 55 157 155
10314 1 55 157 156
10315 3 55 157 158
10316 4 55 157 159
10317 3 55 157 160
10318 1 58 157 59
10319 3 58 157 136
10320 4 58 157 138
10321 3 58 157 140
10322 3 58 157 155
10323 1 58 157 156
10324 2 58 157 158
10325 3 58 157 159
10326 1 58 157 160
10327 3 59 157 136
10328 3 59 157 138
10329 1 59 157 140
10330 4 59 157 155
10331 3 59 157 156
10332 3 59 157 158
10333 2 59 157 159
10334 1 59 157 160
10335 1 136 157 138
10336 2 136 157 140
10337 1 136 157 155
10338 2 136 157 156
10339 3 136 157 158
10340 3 136 157 159
10341 4 136 157 160
10342 1 138 157 140
10343 1 138 157 155
10344 3 138 157 156
10345 2 138 157 158
10346 1 138 157 159
10347 3 138 157 160
10348 3 140 157 155
10349 4 140 157 156
10350 3 140 157 158
10351 1 140 157 159
10352 2 140 157 160
10353 1 155 157 156
10354 1 155 157 158
10355 2 155 157 159
10356 3 155 157 160
10357 1 156 157 158
10358 3 156 157 159
10359 2 156 157 160
10360 1 158 157 159
10361 1 158 157 160
10362 1 159 157 160
10363 1 155 158 156
10364 1 155 158 157
10365 2 155 158 159
10366 3 155 158 160
10367 2 155 158 175
10368 3 155 158 177
10369 4 155 158 179
10370 1 155 158 256
10371 1 155 158 257
10372 3 155 158 260
10373 3 155 158 277
10374 1 156 158 157
10375 3 156 158 159
10376 2 156 158 160
10377 1 156 158 175
10378 1 156 158 177
10379 3 156 158 179
10380 2 156 158 256
10381 3 156 158 257
10382 4 156 158 260
10383 3 156 158 277
10384 1 157 158 159
10385 1 157 158 160
10386 3 157 158 175
10387 2 157 158 177
10388 3 157 158 179
10389 3 157 158 256
10390 2 157 158 257
10391 3 157 158 260
10392 4 157 158 277
10393 1 159 158 160
10394 4 159 158 175
10395 3 159 158 177
10396 2 159 158 179
10397 3 159 158 256
10398 1 159 158 257
10399 1 159 158 260
10400 3 159 158 277
10401 3 160 158 175
10402 1 160 158 177
10403 1 160 158 179
10404 4 160 158 256
10405 3 160 158 257
10406 2 160 158 260
10407 3 160 158 277
10408 1 175 158 177
10409 2 175 158 179
10410 1 175 158 256
10411 3 175 158 257
10412 3 175 158 260
10413 1 175 158 277
10414 1 177 158 179
10415 3 177 158 256
10416 4 177 158 257
10417 3 177 158 260
10418 2 177 158 277
10419 3 179 158 256
10420 3 179 158 257
10421 1 179 158 260
10422 1 179 158 277
10423 1 256 158 257
10424 2 256 158 260
10425 1 256 158 277
10426 1 257 158 260
10427 2 257 158 277
10428 1 260 158 277
10429 1 138 159 140
10430 2 138 159 122
10431 1 138 159 157
10432 2 138 159 158
10433 3 138 159 160
10434 3 138 159 141
10435 4 138 159 142
10436 1 138 159 240
10437 1 138 159 257
10438 3 138 159 260
10439 3 138 159 241
10440 1 140 159 122
10441 1 140 159 157
10442 3 140 159 158
10443 2 140 159 160
10444 1 140 159 141
10445 3 140 159 142
10446 2 140 159 240
10447 3 140 159 257
10448 4 140 159 260
10449 3 140 159 241
10450 3 122 159 157
10451 4 122 159 158
10452 3 122 159 160
10453 1 122 159 141
10454 2 122 159 142
10455 1 122 159 240
10456 3 122 159 257
10457 3 122 159 260
10458 1 122 159 241
10459 1 157 159 158
10460 1 157 159 160
10461 2 157 159 141
10462 3 157 159 142
10463 3 157 159 240
10464 2 157 159 257
10465 3 157 159 260
10466 4 157 159 241
10467 1 158 159 160
10468 3 158 159 141
10469 2 158 159 142
10470 3 158 159 240
10471 1 158 159 257
10472 1 158 159 260
10473 3 158 159 241
10474 1 160 159 141
10475 1 160 159 142
10476 4 160 159 240
10477 3 160 159 257
10478 2 160 159 260
10479 3 160 159 241
10480 1 141 159 142
10481 3 141 159 240
10482 4 141 159 257
10483 3 141 159 260
10484 2 141 159 241
10485 3 142 159 240
10486 3 142 159 257
10487 1 142 159 260
10488 1 142 159 241
10489 1 240 159 257
10490 2 240 159 260
10491 1 240 159 241
10492 1 257 159 260
10493 2 257 159 241
10494 1 260 159 241
10495 1 58 160 59
10496 2 58 160 42
10497 1 58 160 79
10498 1 58 160 157
10499 2 58 160 158
10500 3 58 160 159
10501 3 58 160 141
10502 4 58 160 142
10503 1 58 160 177
10504 3 58 160 179
10505 3 58 160 161
10506 1 59 160 42
10507 2 59 160 79
10508 1 59 160 157
10509 3 59 160 158
10510 2 59 160 159
10511 1 59 160 141
10512 3 59 160 142
10513 3 59 160 177
10514 4 59 160 179
10515 3 59 160 161
10516 1 42 160 79
10517 3 42 160 157
10518 4 42 160 158
10519 3 42 160 159
10520 1 42 160 141
10521 2 42 160 142
10522 3 42 160 177
10523 3 42 160 179
10524 1 42 160 161
10525 3 79 160 157
10526 3 79 160 158
10527 4 79 160 159
10528 3 79 160 141
10529 3 79 160 142
10530 1 79 160 177
10531 2 79 160 179
10532 1 79 160 161
10533 1 157 160 158
10534 1 157 160 159
10535 2 157 160 141
10536 3 157 160 142
10537 2 157 160 177
10538 3 157 160 179
10539 4 157 160 161
10540 1 158 160 159
10541 3 158 160 141
10542 2 158 160 142
10543 1 158 160 177
10544 1 158 160 179
10545 3 158 160 161
10546 1 159 160 141
10547 1 159 160 142
10548 3 159 160 177
10549 2 159 160 179
10550 3 159 160 161
10551 1 141 160 142
10552 4 141 160 177
10553 3 141 160 179
10554 2 141 160 161
10555 3 142 160 177
10556 1 142 160 179
10557 1 142 160 161
10558 1 177 160 179
10559 2 177 160 161
10560 1 179 160 161
10561 1 42 161 79
10562 2 42 161 62
10563 1 42 161 63
10564 1 42 161 160
10565 2 42 161 142
10566 1 42 161 144
10567 3 42 161 179
10568 3 42 161 180
10569 4 42 161 162
10570 3 42 161 163
10571 3 42 161 164
10572 1 79 161 62
10573 2 79 161 63
10574 1 79 161 160
10575 3 79 161 142
10576 3 79 161 144
10577 2 79 161 179
10578 1 79 161 180
10579 3 79 161 162
10580 4 79 161 163
10581 3 79 161 164
10582 1 62 161 63
10583 3 62 161 160
10584 4 62 161 142
10585 3 62 161 144
10586 3 62 161 179
10587 1 62 161 180
10588 2 62 161 162
10589 3 62 161 163
10590 1 62 161 164
10591 3 63 161 160
10592 3 63 161 142
10593 1 63 161 144
10594 4 63 161 179
10595 3 63 161 180
10596 3 63 161 162
10597 2 63 161 163
10598 1 63 161 164
10599 1 160 161 142
10600 2 160 161 144
10601 1 160 161 179
10602 2 160 161 180
10603 3 160 161 162
10604 3 160 161 163
10605 4 160 161 164
10606 1 142 161 144
10607 1 142 161 179
10608 3 142 161 180
10609 2 142 161 162
10610 1 142 161 163
10611 3 142 161 164
10612 3 144 161 179
10613 4 144 161 180
10614 3 144 161 162
10615 1 144 161 163
10616 2 144 161 164
10617 1 179 161 180
10618 1 179 161 162
10619 2 179 161 163
10620 3 179 161 164
10621 1 180 161 162
10622 3 180 161 163
10623 2 180 161 164
10624 1 162 161 163
10625 1 162 161 164
10626 1 163 161 164
10627 1 179 162 180
10628 1 179 162 161
10629 2 179 162 163
10630 3 179 162 164
10631 2 179 162 199
10632 3 179 162 181
10633 4 179 162 183
10634 1 179 162 280
10635 1 179 162 261
10636 3 179 162 264
10637 3 179 162 281
10638 1 180 162 161
10639 3 180 162 163
10640 2 180 162 164
10641 1 180 162 199
10642 1 180 162 181
10643 3 180 162 183
10644 2 180 162 280
10645 3 180 162 261
10646 4 180 162 264
10647 3 180 162 281
10648 1 161 162 163
10649 1 161 162 164
10650 3 161 162 199
10651 2 161 162 181
10652 3 161 162 183
10653 3 161 162 280
10654 2 161 162 261
10655 3 161 162 264
10656 4 161 162 281
10657 1 163 162 164
10658 4 163 162 199
10659 3 163 162 181
10660 2 163 162 183
10661 3 163 162 280
10662 1 163 162 261
10663 1 163 162 264
10664 3 163 162 281
10665 3 164 162 199
10666 1 164 162 181
10667 1 164 162 183
10668 4 164 162 280
10669 3 164 162 261
10670 2 164 162 264
10671 3 164 162 281
10672 1 199 162 181
10673 2 199 162 183
10674 1 199 162 280
10675 3 199 162 261
10676 3 199 162 264
10677 1 199 162 281
10678 1 181 162 183
10679 3 181 162 280
10680 4 181 162 261
10681 3 181 162 264
10682 2 181 162 281
10683 3 183 162 280
10684 3 183 162 261
10685 1 183 162 264
10686 1 183 162 281
10687 1 280 162 261
10688 2 280 162 264
10689 1 280 162 281
10690 1 261 162 264
10691 2 261 162 281
10692 1 264 162 281
10693 1 142 163 144
10694 2 142 163 146
10695 1 142 163 161
10696 2 142 163 162
10697 3 142 163 164
10698 3 142 163 165
10699 4 142 163 166
10700 1 142 163 244
10701 1 142 163 261
10702 3 142 163 264
10703 3 142 163 265
10704 1 144 163 146
10705 1 144 163 161
10706 3 144 163 162
10707 2 144 163 164
10708 1 144 163 165
10709 3 144 163 166
10710 2 144 163 244
10711 3 144 163 261
10712 4 144 163 264
10713 3 144 163 265
10714 3 146 163 161
10715 4 146 163 162
10716 3 146 163 164
10717 1 146 163 165
10718 2 146 163 166
10719 1 146 163 244
10720 3 146 163 261
10721 3 146 163 264
10722 1 146 163 265
10723 1 161 163 162
10724 1 161 163 164
10725 2 161 163 165
10726 3 161 163 166
10727 3 161 163 244
10728 2 161 163 261
10729 3 161 163 264
10730 4 161 163 265
10731 1 162 163 164
10732 3 162 163 165
10733 2 162 163 166
10734 3 162 163 244
10735 1 162 163 261
10736 1 162 163 264
10737 3 162 163 265
10738 1 164 163 165
10739 1 164 163 166
10740 4 164 163 244
10741 3 164 163 261
10742 2 164 163 264
10743 3 164 163 265
10744 1 165 163 166
10745 3 165 163 244
10746 4 165 163 261
10747 3 165 163 264
10748 2 165 163 265
10749 3 166 163 244
10750 3 166 163 261
10751 1 166 163 264
10752 1 166 163 265
10753 1 244 163 261
10754 2 244 163 264
10755 1 244 163 265
10756 1 261 163 264
10757 2 261 163 265
10758 1 264 163 265
10759 1 62 164 63
10760 2 62 164 66
10761 1 62 164 83
10762 1 62 164 161
10763 2 62 164 162
10764 3 62 164 163
10765 3 62 164 165
10766 4 62 164 166
10767 1 62 164 181
10768 3 62 164 183
10769 3 62 164 185
10770 1 63 164 66
10771 2 63 164 83
10772 1 63 164 161
10773 3 63 164 162
10774 2 63 164 163
10775 1 63 164 165
10776 3 63 164 166
10777 3 63 164 181
10778 4 63 164 183
10779 3 63 164 185
10780 1 66 164 83
10781 3 66 164 161
10782 4 66 164 162
10783 3 66 164 163
10784 1 66 164 165
10785 2 66 164 166
10786 3 66 164 181
10787 3 66 164 183
10788 1 66 164 185
10789 3 83 164 161
10790 3 83 164 162
10791 4 83 164 163
10792 3 83 164 165
10793 3 83 164 166
10794 1 83 164 181
10795 2 83 164 183
10796 1 83 164 185
10797 1 161 164 162
10798 1 161 164 163
10799 2 161 164 165
10800 3 161 164 166
10801 2 161 164 181
10802 3 161 164 183
10803 4 161 164 185
10804 1 162 164 163
10805 3 162 164 165
10806 2 162 164 166
10807 1 162 164 181
10808 1 162 164 183
10809 3 162 164 185
10810 1 163 164 165
10811 1 163 164 166
10812 3 163 164 181
10813 2 163 164 183
10814 3 163 164 185
10815 1 165 164 166
10816 4 165 164 181
10817 3 165 164 183
10818 2 165 164 185
10819 3 166 164 181
10820 1 166 164 183
10821 1 166 164 185
10822 1 181 164 183
10823 2 181 164 185
10824 1 183 164 185
10825 1 46 165 63
10826 2 46 165 66
10827 1 46 165 67
10828 1 46 165 144
10829 2 46 165 146
10830 1 46 165 148
10831 3 46 165 163
10832 3 46 165 164
10833 4 46 165 166
10834 3 46 165 167
10835 3 46 165 168
10836 1 63 165 66
10837 2 63 165 67
10838 1 63 165 144
10839 3 63 165 146
10840 3 63 165 148
10841 2 63 165 163
10842 1 63 165 164
10843 3 63 165 166
10844 4 63 165 167
10845 3 63 165 168
10846 1 66 165 67
10847 3 66 165 144
10848 4 66 165 146
10849 3 66 165 148
10850 3 66 165 163
10851 1 66 165 164
10852 2 66 165 166
10853 3 66 165 167
10854 1 66 165 168
10855 3 67 165 144
10856 3 67 165 146
10857 1 67 165 148
10858 4 67 165 163
10859 3 67 165 164
10860 3 67 165 166
10861 2 67 165 167
10862 1 67 165 168
10863 1 144 165 146
10864 2 144 165 148
10865 1 144 165 163
10866 2 144 165 164
10867 3 144 165 166
10868 3 144 165 167
10869 4 144 165 168
10870 1 146 165 148
10871 1 146 165 163
10872 3 146 165 164
10873 2 146 165 166
10874 1 146 165 167
10875 3 146 165 168
10876 3 148 165 163
10877 4 148 165 164
10878 3 148 165 166
10879 1 148 165 167
10880 2 148 165 168
10881 1 163 165 164
10882 1 163 165 166
10883 2 163 165 167
10884 3 163 165 168
10885 1 164 165 166
10886 3 164 165 167
10887 2 164 165 168
10888 1 166 165 167
10889 1 166 165 168
10890 1 167 165 168
10891 1 163 166 164
10892 1 163 166 165
10893 2 163 166 167
10894 3 163 166 168
10895 2 163 166 183
10896 3 163 166 185
10897 4 163 166 187
10898 1 163 166 264
10899 1 163 166 265
10900 3 163 166 268
10901 3 163 166 285
10902 1 164 166 165
10903 3 164 166 167
10904 2 164 166 168
10905 1 164 166 183
10906 1 164 166 185
10907 3 164 166 187
10908 2 164 166 264
10909 3 164 166 265
10910 4 164 166 268
10911 3 164 166 285
10912 1 165 166 167
10913 1 165 166 168
10914 3 165 166 183
10915 2 165 166 185
10916 3 165 166 187
10917 3 165 166 264
10918 2 165 166 265
10919 3 165 166 268
10920 4 165 166 285
10921 1 167 166 168
10922 4 167 166 183
10923 3 167 166 185
10924 2 167 166 187
10925 3 167 166 264
10926 1 167 166 265
10927 1 167 166 268
10928 3 167 166 285
10929 3 168 166 183
10930 1 168 166 185
10931 1 168 166 187
10932 4 168 166 264
10933 3 168 166 265
10934 2 168 166 268
10935 3 168 166 285
10936 1 183 166 185
10937 2 183 166 187
10938 1 183 166 264
10939 3 183 166 265
10940 3 183 166 268
10941 1 183 166 285
10942 1 185 166 187
10943 3 185 166 264
10944 4 185 166 265
10945 3 185 166 268
10946 2 185 166 285
10947 3 187 166 264
10948 3 187 166 265
10949 1 187 166 268
10950 1 187 166 285
10951 1 264 166 265
10952 2 264 166 268
10953 1 264 166 285
10954 1 265 166 268
10955 2 265 166 285
10956 1 268 166 285
10957 1 146 167 148
10958 2 146 167 150
10959 1 146 167 165
10960 2 146 167 166
10961 3 146 167 168
10962 3 146 167 169
10963 4 146 167 170
10964 1 146 167 248
10965 1 146 167 265
10966 3 146 167 268
10967 3 146 167 269
10968 1 148 167 150
10969 1 148 167 165
10970 3 148 167 166
10971 2 148 167 168
10972 1 148 167 169
10973 3 148 167 170
10974 2 148 167 248
10975 3 148 167 265
10976 4 148 167 268
10977 3 148 167 269
10978 3 150 167 165
10979 4 150 167 166
10980 3 150 167 168
10981 1 150 167 169
10982 2 150 167 170
10983 1 150 167 248
10984 3 150 167 265
10985 3 150 167 268
10986 1 150 167 269
10987 1 165 167 166
10988 1 165 167 168
10989 2 165 167 169
10990 3 165 167 170
10991 3 165 167 248
10992 2 165 167 265
10993 3 165 167 268
10994 4 165 167 269
10995 1 166 167 168
10996 3 166 167 169
10997 2 166 167 170
10998 3 166 167 248
10999 1 166 167 265
11000 1 166 167 268
11001 3 166 167 269
11002 1 168 167 169
11003 1 168 167 170
11004 4 168 167 248
11005 3 168 167 265
11006 2 168 167 268
11007 3 168 167 269
11008 1 169 167 170
11009 3 169 167 248
11010 4 169 167 265
11011 3 169 167 268
11012 2 169 167 269
11013 3 170 167 248
11014 3 170 167 265
11015 1 170 167 268
11016 1 170 167 269
11017 1 248 167 265
11018 2 248 167 268
11019 1 248 167 269
11020 1 265 167 268
11021 2 265 167 269
11022 1 268 167 269
11023 1 66 168 67
11024 2 66 168 70
11025 1 66 168 87
11026 1 66 168 165
11027 2 66 168 166
11028 3 66 168 167
11029 3 66 168 169
11030 4 66 168 170
11031 1 66 168 185
11032 3 66 168 187
11033 3 66 168 189
11034 1 67 168 70
11035 2 67 168 87
11036 1 67 168 165
11037 3 67 168 166
11038 2 67 168 167
11039 1 67 168 169
11040 3 67 168 170
11041 3 67 168 185
11042 4 67 168 187
11043 3 67 168 189
11044 1 70 168 87
11045 3 70 168 165
11046 4 70 168 166
11047 3 70 168 167
11048 1 70 168 169
11049 2 70 168 170
11050 3 70 168 185
11051 3 70 168 187
11052 1 70 168 189
11053 3 87 168 165
11054 3 87 168 166
11055 4 87 168 167
11056 3 87 168 169
11057 3 87 168 170
11058 1 87 168 185
11059 2 87 168 187
11060 1 87 168 189
11061 1 165 168 166
11062 1 165 168 167
11063 2 165 168 169
11064 3 165 168 170
11065 2 165 168 185
11066 3 165 168 187
11067 4 165 168 189
11068 1 166 168 167
11069 3 166 168 169
11070 2 166 168 170
11071 1 166 168 185
11072 1 166 168 187
11073 3 166 168 189
11074 1 167 168 169
11075 1 167 168 170
11076 3 167 168 185
11077 2 167 168 187
11078 3 167 168 189
11079 1 169 168 170
11080 4 169 168 185
11081 3 169 168 187
11082 2 169 168 189
11083 3 170 168 185
11084 1 170 168 187
11085 1 170 168 189
11086 1 185 168 187
11087 2 185 168 189
11088 1 187 168 189
11089 1 50 169 67
11090 2 50 169 70
11091 1 50 169 71
11092 1 50 169 148
11093 2 50 169 150
11094 1 50 169 152
11095 3 50 169 167
11096 3 50 169 168
11097 4 50 169 170
11098 3 50 169 171
11099 3 50 169 172
11100 1 67 169 70
11101 2 67 169 71
11102 1 67 169 148
11103 3 67 169 150
11104 3 67 169 152
11105 2 67 169 167
11106 1 67 169 168
11107 3 67 169 170
11108 4 67 169 171
11109 3 67 169 172
11110 1 70 169 71
11111 3 70 169 148
11112 4 70 169 150
11113 3 70 169 152
11114 3 70 169 167
11115 1 70 169 168
11116 2 70 169 170
11117 3 70 169 171
11118 1 70 169 172
11119 3 71 169 148
11120 3 71 169 150
11121 1 71 169 152
11122 4 71 169 167
11123 3 71 169 168
11124 3 71 169 170
11125 2 71 169 171
11126 1 71 169 172
11127 1 148 169 150
11128 2 148 169 152
11129 1 148 169 167
11130 2 148 169 168
11131 3 148 169 170
11132 3 148 169 171
11133 4 148 169 172
11134 1 150 169 152
11135 1 150 169 167
11136 3 150 169 168
11137 2 150 169 170
11138 1 150 169 171
11139 3 150 169 172
11140 3 152 169 167
11141 4 152 169 168
11142 3 152 169 170
11143 1 152 169 171
11144 2 152 169 172
11145 1 167 169 168
11146 1 167 169 170
11147 2 167 169 171
11148 3 167 169 172
11149 1 168 169 170
11150 3 168 169 171
11151 2 168 169 172
11152 1 170 169 171
11153 1 170 169 172
11154 1 171 169 172
11155 1 167 170 168
11156 1 167 170 169
11157 2 167 170 171
11158 3 167 170 172
11159 2 167 170 187
11160 3 167 170 189
11161 4 167 170 191
11162 1 167 170 268
11163 1 167 170 269
11164 3 167 170 272
11165 3 167 170 289
11166 1 168 170 169
11167 3 168 170 171
11168 2 168 170 172
11169 1 168 170 187
11170 1 168 170 189
11171 3 168 170 191
11172 2 168 170 268
11173 3 168 170 269
11174 4 168 170 272
11175 3 168 170 289
11176 1 169 170 171
11177 1 169 170 172
11178 3 169 170 187
11179 2 169 170 189
11180 3 169 170 191
11181 3 169 170 268
11182 2 169 170 269
11183 3 169 170 272
11184 4 169 170 289
11185 1 171 170 172
11186 4 171 170 187
11187 3 171 170 189
11188 2 171 170 191
11189 3 171 170 268
11190 1 171 170 269
11191 1 171 170 272
11192 3 171 170 289
11193 3 172 170 187
11194 1 172 170 189
11195 1 172 170 191
11196 4 172 170 268
11197 3 172 170 269
11198 2 172 170 272
11199 3 172 170 289
11200 1 187 170 189
11201 2 187 170 191
11202 1 187 170 268
11203 3 187 170 269
11204 3 187 170 272
11205 1 187 170 289
11206 1 189 170 191
11207 3 189 170 268
11208 4 189 170 269
11209 3 189 170 272
11210 2 189 170 289
11211 3 191 170 268
11212 3 191 170 269
11213 1 191 170 272
11214 1 191 170 289
11215 1 268 170 269
11216 2 268 170 272
11217 1 268 170 289
11218 1 269 170 272
11219 2 269 170 289
11220 1 272 170 289
11221 1 150 171 152
11222 2 150 171 154
11223 1 150 171 169
11224 2 150 171 170
11225 3 150 171 172
11226 3 150 171 173
11227 4 150 171 174
11228 1 150 171 252
11229 1 150 171 269
11230 3 150 171 272
11231 3 150 171 273
11232 1 152 171 154
11233 1 152 171 169
11234 3 152 171 170
11235 2 152 171 172
11236 1 152 171 173
11237 3 152 171 174
11238 2 152 171 252
11239 3 152 171 269
11240 4 152 171 272
11241 3 152 171 273
11242 3 154 171 169
11243 4 154 171 170
11244 3 154 171 172
11245 1 154 171 173
11246 2 154 171 174
11247 1 154 171 252
11248 3 154 171 269
11249 3 154 171 272
11250 1 154 171 273
11251 1 169 171 170
11252 1 169 171 172
11253 2 169 171 173
11254 3 169 171 174
11255 3 169 171 252
11256 2 169 171 269
11257 3 169 171 272
11258 4 169 171 273
11259 1 170 171 172
11260 3 170 171 173
11261 2 170 171 174
11262 3 170 171 252
11263 1 170 171 269
11264 1 170 171 272
11265 3 170 171 273
11266 1 172 171 173
11267 1 172 171 174
11268 4 172 171 252
11269 3 172 171 269
11270 2 172 171 272
11271 3 172 171 273
11272 1 173 171 174
11273 3 173 171 252
11274 4 173 171 269
11275 3 173 171 272
11276 2 173 171 273
11277 3 174 171 252
11278 3 174 171 269
11279 1 174 171 272
11280 1 174 171 273
11281 1 252 171 269
11282 2 252 171 272
11283 1 252 171 273
11284 1 269 171 272
11285 2 269 171 273
11286 1 272 171 273
11287 1 70 172 71
11288 2 70 172 74
11289 1 70 172 91
11290 1 70 172 169
11291 2 70 172 170
11292 3 70 172 171
11293 3 70 172 173
11294 4 70 172 174
11295 1 70 172 189
11296 3 70 172 191
11297 3 70 172 193
11298 1 71 172 74
11299 2 71 172 91
11300 1 71 172 169
11301 3 71 172 170
11302 2 71 172 171
11303 1 71 172 173
11304 3 71 172 174
11305 3 71 172 189
11306 4 71 172 191
11307 3 71 172 193
11308 1 74 172 91
11309 3 74 172 169
11310 4 74 172 170
11311 3 74 172 171
11312 1 74 172 173
11313 2 74 172 174
11314 3 74 172 189
11315 3 74 172 191
11316 1 74 172 193
11317 3 91 172 169
11318 3 91 172 170
11319 4 91 172 171
11320 3 91 172 173
11321 3 91 172 174
11322 1 91 172 189
11323 2 91 172 191
11324 1 91 172 193
11325 1 169 172 170
11326 1 169 172 171
11327 2 169 172 173
11328 3 169 172 174
11329 2 169 172 189
11330 3 169 172 191
11331 4 169 172 193
11332 1 170 172 171
11333 3 170 172 173
11334 2 170 172 174
11335 1 170 172 189
11336 1 170 172 191
11337 3 170 172 193
11338 1 171 172 173
11339 1 171 172 174
11340 3 171 172 189
11341 2 171 172 191
11342 3 171 172 193
11343 1 173 172 174
11344 4 173 172 189
11345 3 173 172 191
11346 2 173 172 193
11347 3 174 172 189
11348 1 174 172 191
11349 1 174 172 193
11350 1 189 172 191
11351 2 189 172 193
11352 1 191 172 193
11353 1 54 173 71
11354 2 54 173 74
11355 1 54 173 75
11356 1 54 173 152
11357 2 54 173 154
11358 1 54 173 156
11359 3 54 173 171
11360 3 54 173 172
11361 4 54 173 174
11362 3 54 173 175
11363 3 54 173 176
11364 1 71 173 74
11365 2 71 173 75
11366 1 71 173 152
11367 3 71 173 154
11368 3 71 173 156
11369 2 71 173 171
11370 1 71 173 172
11371 3 71 173 174
11372 4 71 173 175
11373 3 71 173 176
11374 1 74 173 75
11375 3 74 173 152
11376 4 74 173 154
11377 3 74 173 156
11378 3 74 173 171
11379 1 74 173 172
11380 2 74 173 174
11381 3 74 173 175
11382 1 74 173 176
11383 3 75 173 152
11384 3 75 173 154
11385 1 75 173 156
11386 4 75 173 171
11387 3 75 173 172
11388 3 75 173 174
11389 2 75 173 175
11390 1 75 173 176
11391 1 152 173 154
11392 2 152 173 156
11393 1 152 173 171
11394 2 152 173 172
11395 3 152 173 174
11396 3 152 173 175
11397 4 152 173 176
11398 1 154 173 156
11399 1 154 173 171
11400 3 154 173 172
11401 2 154 173 174
11402 1 154 173 175
11403 3 154 173 176
11404 3 156 173 171
11405 4 156 173 172
11406 3 156 173 174
11407 1 156 173 175
11408 2 156 173 176
11409 1 171 173 172
11410 1 171 173 174
11411 2 171 173 175
11412 3 171 173 176
11413 1 172 173 174
11414 3 172 173 175
11415 2 172 173 176
11416 1 174 173 175
11417 1 174 173 176
11418 1 175 173 176
11419 1 171 174 172
11420 1 171 174 173
11421 2 171 174 175
11422 3 171 174 176
11423 2 171 174 191
11424 3 171 174 193
11425 4 171 174 195
11426 1 171 174 272
11427 1 171 174 273
11428 3 171 174 276
11429 3 171 174 293
11430 1 172 174 173
11431 3 172 174 175
11432 2 172 174 176
11433 1 172 174 191
11434 1 172 174 193
11435 3 172 174 195
11436 2 172 174 272
11437 3 172 174 273
11438 4 172 174 276
11439 3 172 174 293
11440 1 173 174 175
11441 1 173 174 176
11442 3 173 174 191
11443 2 173 174 193
11444 3 173 174 195
11445 3 173 174 272
11446 2 173 174 273
11447 3 173 174 276
11448 4 173 174 293
11449 1 175 174 176
11450 4 175 174 191
11451 3 175 174 193
11452 2 175 174 195
11453 3 175 174 272
11454 1 175 174 273
11455 1 175 174 276
11456 3 175 174 293
11457 3 176 174 191
11458 1 176 174 193
11459 1 176 174 195
11460 4 176 174 272
11461 3 176 174 273
11462 2 176 174 276
11463 3 176 174 293
11464 1 191 174 193
11465 2 191 174 195
11466 1 191 174 272
11467 3 191 174 273
11468 3 191 174 276
11469 1 191 174 293
11470 1 193 174 195
11471 3 193 174 272
11472 4 193 174 273
11473 3 193 174 276
11474 2 193 174 293
11475 3 195 174 272
11476 3 195 174 273
11477 1 195 174 276
11478 1 195 174 293
11479 1 272 174 273
11480 2 272 174 276
11481 1 272 174 293
11482 1 273 174 276
11483 2 273 174 293
11484 1 276 174 293
11485 1 154 175 156
11486 2 154 175 158
11487 1 154 175 173
11488 2 154 175 174
11489 3 154 175 176
11490 3 154 175 177
11491 4 154 175 178
11492 1 154 175 256
11493 1 154 175 273
11494 3 154 175 276
11495 3 154 175 277
11496 1 156 175 158
11497 1 156 175 173
11498 3 156 175 174
11499 2 156 175 176
11500 1 156 175 177
11501 3 156 175 178
11502 2 156 175 256
11503 3 156 175 273
11504 4 156 175 276
11505 3 156 175 277
11506 3 158 175 173
11507 4 158 175 174
11508 3 158 175 176
11509 1 158 175 177
11510 2 158 175 178
11511 1 158 175 256
11512 3 158 175 273
11513 3 158 175 276
11514 1 158 175 277
11515 1 173 175 174
11516 1 173 175 176
11517 2 173 175 177
11518 3 173 175 178
11519 3 173 175 256
11520 2 173 175 273
11521 3 173 175 276
11522 4 173 175 277
11523 1 174 175 176
11524 3 174 175 177
11525 2 174 175 178
11526 3 174 175 256
11527 1 174 175 273
11528 1 174 175 276
11529 3 174 175 277
11530 1 176 175 177
11531 1 176 175 178
11532 4 176 175 256
11533 3 176 175 273
11534 2 176 175 276
11535 3 176 175 277
11536 1 177 175 178
11537 3 177 175 256
11538 4 177 175 273
11539 3 177 175 276
11540 2 177 175 277
11541 3 178 175 256
11542 3 178 175 273
11543 1 178 175 276
11544 1 178 175 277
11545 1 256 175 273
11546 2 256 175 276
11547 1 256 175 277
11548 1 273 175 276
11549 2 273 175 277
11550 1 276 175 277
11551 1 74 176 75
11552 2 74 176 78
11553 1 74 176 95
11554 1 74 176 173
11555 2 74 176 174
11556 3 74 176 175
11557 3 74 176 177
11558 4 74 176 178
11559 1 74 176 193
11560 3 74 176 195
11561 3 74 176 197
11562 1 75 176 78
11563 2 75 176 95
11564 1 75 176 173
11565 3 75 176 174
11566 2 75 176 175
11567 1 75 176 177
11568 3 75 176 178
11569 3 75 176 193
11570 4 75 176 195
11571 3 75 176 197
11572 1 78 176 95
11573 3 78 176 173
11574 4 78 176 174
11575 3 78 176 175
11576 1 78 176 177
11577 2 78 176 178
11578 3 78 176 193
11579 3 78 176 195
11580 1 78 176 197
11581 3 95 176 173
11582 3 95 176 174
11583 4 95 176 175
11584 3 95 176 177
11585 3 95 176 178
11586 1 95 176 193
11587 2 95 176 195
11588 1 95 176 197
11589 1 173 176 174
11590 1 173 176 175
11591 2 173 176 177
11592 3 173 176 178
11593 2 173 176 193
11594 3 173 176 195
11595 4 173 176 197
11596 1 174 176 175
11597 3 174 176 177
11598 2 174 176 178
11599 1 174 176 193
11600 1 174 176 195
11601 3 174 176 197
11602 1 175 176 177
11603 1 175 176 178
11604 3 175 176 193
11605 2 175 176 195
11606 3 175 176 197
11607 1 177 176 178
11608 4 177 176 193
11609 3 177 176 195
11610 2 177 176 197
11611 3 178 176 193
11612 1 178 176 195
11613 1 178 176 197
11614 1 193 176 195
11615 2 193 176 197
11616 1 195 176 197
11617 1 58 177 75
11618 2 58 177 78
11619 1 58 177 79
11620 1 58 177 156
11621 2 58 177 158
11622 1 58 177 160
11623 3 58 177 175
11624 3 58 177 176
11625 4 58 177 178
11626 3 58 177 179
11627 3 58 177 180
11628 1 75 177 78
11629 2 75 177 79
11630 1 75 177 156
11631 3 75 177 158
11632 3 75 177 160
11633 2 75 177 175
11634 1 75 177 176
11635 3 75 177 178
11636 4 75 177 179
11637 3 75 177 180
11638 1 78 177 79
11639 3 78 177 156
11640 4 78 177 158
11641 3 78 177 160
11642 3 78 177 175
11643 1 78 177 176
11644 2 78 177 178
11645 3 78 177 179
11646 1 78 177 180
11647 3 79 177 156
11648 3 79 177 158
11649 1 79 177 160
11650 4 79 177 175
11651 3 79 177 176
11652 3 79 177 178
11653 2 79 177 179
11654 1 79 177 180
11655 1 156 177 158
11656 2 156 177 160
11657 1 156 177 175
11658 2 156 177 176
11659 3 156 177 178
11660 3 156 177 179
11661 4 156 177 180
11662 1 158 177 160
11663 1 158 177 175
11664 3 158 177 176
11665 2 158 177 178
11666 1 158 177 179
11667 3 158 177 180
11668 3 160 177 175
11669 4 160 177 176
11670 3 160 177 178
11671 1 160 177 179
11672 2 160 177 180
11673 1 175 177 176
11674 1 175 177 178
11675 2 175 177 179
11676 3 175 177 180
11677 1 176 177 178
11678 3 176 177 179
11679 2 176 177 180
11680 1 178 177 179
11681 1 178 177 180
11682 1 179 177 180
11683 1 175 178 176
11684 1 175 178 177
11685 2 175 178 179
11686 3 175 178 180
11687 2 175 178 195
11688 3 175 178 197
11689 4 175 178 199
11690 1 175 178 276
11691 1 175 178 277
11692 3 175 178 280
11693 3 175 178 297
11694 1 176 178 177
11695 3 176 178 179
11696 2 176 178 180
11697 1 176 178 195
11698 1 176 178 197
11699 3 176 178 199
11700 2 176 178 276
11701 3 176 178 277
11702 4 176 178 280
11703 3 176 178 297
11704 1 177 178 179
11705 1 177 178 180
11706 3 177 178 195
11707 2 177 178 197
11708 3 177 178 199
11709 3 177 178 276
11710 2 177 178 277
11711 3 177 178 280
11712 4 177 178 297
11713 1 179 178 180
11714 4 179 178 195
11715 3 179 178 197
11716 2 179 178 199
11717 3 179 178 276
11718 1 179 178 277
11719 1 179 178 280
11720 3 179 178 297
11721 3 180 178 195
11722 1 180 178 197
11723 1 180 178 199
11724 4 180 178 276
11725 3 180 178 277
11726 2 180 178 280
11727 3 180 178 297
11728 1 195 178 197
11729 2 195 178 199
11730 1 195 178 276
11731 3 195 178 277
11732 3 195 178 280
11733 1 195 178 297
11734 1 197 178 199
11735 3 197 178 276
11736 4 197 178 277
11737 3 197 178 280
11738 2 197 178 297
11739 3 199 178 276
11740 3 199 178 277
11741 1 199 178 280
11742 1 199 178 297
11743 1 276 178 277
11744 2 276 178 280
11745 1 276 178 297
11746 1 277 178 280
11747 2 277 178 297
11748 1 280 178 297
11749 1 158 179 160
11750 2 158 179 142
11751 1 158 179 177
11752 2 158 179 178
11753 3 158 179 180
11754 3 158 179 161
11755 4 158 179 162
11756 1 158 179 260
11757 1 158 179 277
11758 3 158 179 280
11759 3 158 179 261
11760 1 160 179 142
11761 1 160 179 177
11762 3 160 179 178
11763 2 160 179 180
11764 1 160 179 161
11765 3 160 179 162
11766 2 160 179 260
11767 3 160 179 277
11768 4 160 179 280
11769 3 160 179 261
11770 3 142 179 177
11771 4 142 179 178
11772 3 142 179 180
11773 1 142 179 161
11774 2 142 179 162
11775 1 142 179 260
11776 3 142 179 277
11777 3 142 179 280
11778 1 142 179 261
11779 1 177 179 178
11780 1 177 179 180
11781 2 177 179 161
11782 3 177 179 162
11783 3 177 179 260
11784 2 177 179 277
11785 3 177 179 280
11786 4 177 179 261
11787 1 178 179 180
11788 3 178 179 161
11789 2 178 179 162
11790 3 178 179 260
11791 1 178 179 277
11792 1 178 179 280
11793 3 178 179 261
11794 1 180 179 161
11795 1 180 179 162
11796 4 180 179 260
11797 3 180 179 277
11798 2 180 179 280
11799 3 180 179 261
11800 1 161 179 162
11801 3 161 179 260
11802 4 161 179 277
11803 3 161 179 280
11804 2 161 179 261
11805 3 162 179 260
11806 3 162 179 277
11807 1 162 179 280
11808 1 162 179 261
11809 1 260 179 277
11810 2 260 179 280
11811 1 260 179 261
11812 1 277 179 280
11813 2 277 179 261
11814 1 280 179 261
11815 1 78 180 79
11816 2 78 180 62
11817 1 78 180 99
11818 1 78 180 177
11819 2 78 180 178
11820 3 78 180 179
11821 3 78 180 161
11822 4 78 180 162
11823 1 78 180 197
11824 3 78 180 199
11825 3 78 180 181
11826 1 79 180 62
11827 2 79 180 99
11828 1 79 180 177
11829 3 79 180 178
11830 2 79 180 179
11831 1 79 180 161
11832 3 79 180 162
11833 3 79 180 197
11834 4 79 180 199
11835 3 79 180 181
11836 1 62 180 99
11837 3 62 180 177
11838 4 62 180 178
11839 3 62 180 179
11840 1 62 180 161
11841 2 62 180 162
11842 3 62 180 197
11843 3 62 180 199
11844 1 62 180 181
11845 3 99 180 177
11846 3 99 180 178
11847 4 99 180 179
11848 3 99 180 161
11849 3 99 180 162
11850 1 99 180 197
11851 2 99 180 199
11852 1 99 180 181
11853 1 177 180 178
11854 1 177 180 179
11855 2 177 180 161
11856 3 177 180 162
11857 2 177 180 197
11858 3 177 180 199
11859 4 177 180 181
11860 1 178 180 179
11861 3 178 180 161
11862 2 178 180 162
11863 1 178 180 197
11864 1 178 180 199
11865 3 178 180 181
11866 1 179 180 161
11867 1 179 180 162
11868 3 179 180 197
11869 2 179 180 199
11870 3 179 180 181
11871 1 161 180 162
11872 4 161 180 197
11873 3 161 180 199
11874 2 161 180 181
11875 3 162 180 197
11876 1 162 180 199
11877 1 162 180 181
11878 1 197 180 199
11879 2 197 180 181
11880 1 199 180 181
11881 1 62 181 99
11882 2 62 181 82
11883 1 62 181 83
11884 1 62 181 180
11885 2 62 181 162
11886 1 62 181 164
11887 3 62 181 199
11888 3 62 181 200
11889 4 62 181 182
11890 3 62 181 183
11891 3 62 181 184
11892 1 99 181 82
11893 2 99 181 83
11894 1 99 181 180
11895 3 99 181 162
11896 3 99 181 164
11897 2 99 181 199
11898 1 99 181 200
11899 3 99 181 182
11900 4 99 181 183
11901 3 99 181 184
11902 1 82 181 83
11903 3 82 181 180
11904 4 82 181 162
11905 3 82 181 164
11906 3 82 181 199
11907 1 82 181 200
11908 2 82 181 182
11909 3 82 181 183
11910 1 82 181 184
11911 3 83 181 180
11912 3 83 181 162
11913 1 83 181 164
11914 4 83 181 199
11915 3 83 181 200
11916 3 83 181 182
11917 2 83 181 183
11918 1 83 181 184
11919 1 180 181 162
11920 2 180 181 164
11921 1 180 181 199
11922 2 180 181 200
11923 3 180 181 182
11924 3 180 181 183
11925 4 180 181 184
11926 1 162 181 164
11927 1 162 181 199
11928 3 162 181 200
11929 2 162 181 182
11930 1 162 181 183
11931 3 162 181 184
11932 3 164 181 199
11933 4 164 181 200
11934 3 164 181 182
11935 1 164 181 183
11936 2 164 181 184
11937 1 199 181 200
11938 1 199 181 182
11939 2 199 181 183
11940 3 199 181 184
11941 1 200 181 182
11942 3 200 181 183
11943 2 200 181 184
11944 1 182 181 183
11945 1 182 181 184
11946 1 183 181 184
11947 1 199 182 200
11948 1 199 182 181
11949 2 199 182 183
11950 3 199 182 184
11951 2 199 182 119
11952 3 199 182 101
11953 4 199 182 103
11954 1 199 182 300
11955 1 199 182 281
11956 3 199 182 284
11957 3 199 182 201
11958 1 200 182 181
11959 3 200 182 183
11960 2 200 182 184
11961 1 200 182 119
11962 1 200 182 101
11963 3 200 182 103
11964 2 200 182 300
11965 3 200 182 281
11966 4 200 182 284
11967 3 200 182 201
11968 1 181 182 183
11969 1 181 182 184
11970 3 181 182 119
11971 2 181 182 101
11972 3 181 182 103
11973 3 181 182 300
11974 2 181 182 281
11975 3 181 182 284
11976 4 181 182 201
11977 1 183 182 184
11978 4 183 182 119
11979 3 183 182 101
11980 2 183 182 103
11981 3 183 182 300
11982 1 183 182 281
11983 1 183 182 284
11984 3 183 182 201
11985 3 184 182 119
11986 1 184 182 101
11987 1 184 182 103
11988 4 184 182 300
11989 3 184 182 281
11990 2 184 182 284
11991 3 184 182 201
11992 1 119 182 101
11993 2 119 182 103
11994 1 119 182 300
11995 3 119 182 281
11996 3 119 182 284
11997 1 119 182 201
11998 1 101 182 103
11999 3 101 182 300
12000 4 101 182 281
12001 3 101 182 284
12002 2 101 182 201
12003 3 103 182 300
12004 3 103 182 281
12005 1 103 182 284
12006 1 103 182 201
12007 1 300 182 281
12008 2 300 182 284
12009 1 300 182 201
12010 1 281 182 284
12011 2 281 182 201
12012 1 284 182 201
12013 1 162 183 164
12014 2 162 183 166
12015 1 162 183 181
12016 2 162 183 182
12017 3 162 183 184
12018 3 162 183 185
12019 4 162 183 186
12020 1 162 183 264
12021 1 162 183 281
12022 3 162 183 284
12023 3 162 183 285
12024 1 164 183 166
12025 1 164 183 181
12026 3 164 183 182
12027 2 164 183 184
12028 1 164 183 185
12029 3 164 183 186
12030 2 164 183 264
12031 3 164 183 281
12032 4 164 183 284
12033 3 164 183 285
12034 3 166 183 181
12035 4 166 183 182
12036 3 166 183 184
12037 1 166 183 185
12038 2 166 183 186
12039 1 166 183 264
12040 3 166 183 281
12041 3 166 183 284
12042 1 166 183 285
12043 1 181 183 182
12044 1 181 183 184
12045 2 181 183 185
12046 3 181 183 186
12047 3 181 183 264
12048 2 181 183 281
12049 3 181 183 284
12050 4 181 183 285
12051 1 182 183 184
12052 3 182 183 185
12053 2 182 183 186
12054 3 182 183 264
12055 1 182 183 281
12056 1 182 183 284
12057 3 182 183 285
12058 1 184 183 185
12059 1 184 183 186
12060 4 184 183 264
12061 3 184 183 281
12062 2 184 183 284
12063 3 184 183 285
12064 1 185 183 186
12065 3 185 183 264
12066 4 185 183 281
12067 3 185 183 284
12068 2 185 183 285
12069 3 186 183 264
12070 3 186 183 281
12071 1 186 183 284
12072 1 186 183 285
12073 1 264 183 281
12074 2 264 183 284
12075 1 264 183 285
12076 1 281 183 284
12077 2 281 183 285
12078 1 284 183 285
12079 1 82 184 83
12080 2 82 184 86
12081 1 82 184 3
12082 1 82 184 181
12083 2 82 184 182
12084 3 82 184 183
12085 3 82 184 185
12086 4 82 184 186
12087 1 82 184 101
12088 3 82 184 103
12089 3 82 184 105
12090 1 83 184 86
12091 2 83 184 3
12092 1 83 184 181
12093 3 83 184 182
12094 2 83 184 183
12095 1 83 184 185
12096 3 83 184 186
12097 3 83 184 101
12098 4 83 184 103
12099 3 83 184 105
12100 1 86 184 3
12101 3 86 184 181
12102 4 86 184 182
12103 3 86 184 183
12104 1 86 184 185
12105 2 86 184 186
12106 3 86 184 101
12107 3 86 184 103
12108 1 86 184 105
12109 3 3 184 181
12110 3 3 184 182
12111 4 3 184 183
12112 3 3 184 185
12113 3 3 184 186
12114 1 3 184 101
12115 2 3 184 103
12116 1 3 184 105
12117 1 181 184 182
12118 1 181 184 183
12119 2 181 184 185
12120 3 181 184 186
12121 2 181 184 101
12122 3 181 184 103
12123 4 181 184 105
12124 1 182 184 183
12125 3 182 184 185
12126 2 182 184 186
12127 1 182 184 101
12128 1 182 184 103
12129 3 182 184 105
12130 1 183 184 185
12131 1 183 184 186
12132 3 183 184 101
12133 2 183 184 103
12134 3 183 184 105
12135 1 185 184 186
12136 4 185 184 101
12137 3 185 184 103
12138 2 185 184 105
12139 3 186 184 101
12140 1 186 184 103
12141 1 186 184 105
12142 1 101 184 103
12143 2 101 184 105
12144 1 103 184 105
12145 1 66 185 83
12146 2 66 185 86
12147 1 66 185 87
12148 1 66 185 164
12149 2 66 185 166
12150 1 66 185 168
12151 3 66 185 183
12152 3 66 185 184
12153 4 66 185 186
12154 3 66 185 187
12155 3 66 185 188
12156 1 83 185 86
12157 2 83 185 87
12158 1 83 185 164
12159 3 83 185 166
12160 3 83 185 168
12161 2 83 185 183
12162 1 83 185 184
12163 3 83 185 186
12164 4 83 185 187
12165 3 83 185 188
12166 1 86 185 87
12167 3 86 185 164
12168 4 86 185 166
12169 3 86 185 168
12170 3 86 185 183
12171 1 86 185 184
12172 2 86 185 186
12173 3 86 185 187
12174 1 86 185 188
12175 3 87 185 164
12176 3 87 185 166
12177 1 87 185 168
12178 4 87 185 183
12179 3 87 185 184
12180 3 87 185 186
12181 2 87 185 187
12182 1 87 185 188
12183 1 164 185 166
12184 2 164 185 168
12185 1 164 185 183
12186 2 164 185 184
12187 3 164 185 186
12188 3 164 185 187
12189 4 164 185 188
12190 1 166 185 168
12191 1 166 185 183
12192 3 166 185 184
12193 2 166 185 186
12194 1 166 185 187
12195 3 166 185 188
12196 3 168 185 183
12197 4 168 185 184
12198 3 168 185 186
12199 1 168 185 187
12200 2 168 185 188
12201 1 183 185 184
12202 1 183 185 186
12203 2 183 185 187
12204 3 183 185 188
12205 1 184 185 186
12206 3 184 185 187
12207 2 184 185 188
12208 1 186 185 187
12209 1 186 185 188
12210 1 187 185 188
12211 1 183 186 184
12212 1 183 186 185
12213 2 183 186 187
12214 3 183 186 188
12215 2 183 186 103
12216 3 183 186 105
12217 4 183 186 107
12218 1 183 186 284
12219 1 183 186 285
12220 3 183 186 288
12221 3 183 186 205
12222 1 184 186 185
12223 3 184 186 187
12224 2 184 186 188
12225 1 184 186 103
12226 1 184 186 105
12227 3 184 186 107
12228 2 184 186 284
12229 3 184 186 285
12230 4 184 186 288
12231 3 184 186 205
12232 1 185 186 187
12233 1 185 186 188
12234 3 185 186 103
12235 2 185 186 105
12236 3 185 186 107
12237 3 185 186 284
12238 2 185 186 285
12239 3 185 186 288
12240 4 185 186 205
12241 1 187 186 188
12242 4 187 186 103
12243 3 187 186 105
12244 2 187 186 107
12245 3 187 186 284
12246 1 187 186 285
12247 1 187 186 288
12248 3 187 186 205
12249 3 188 186 103
12250 1 188 186 105
12251 1 188 186 107
12252 4 188 186 284
12253 3 188 186 285
12254 2 188 186 288
12255 3 188 186 205
12256 1 103 186 105
12257 2 103 186 107
12258 1 103 186 284
12259 3 103 186 285
12260 3 103 186 288
12261 1 103 186 205
12262 1 105 186 107
12263 3 105 186 284
12264 4 105 186 285
12265 3 105 186 288
12266 2 105 186 205
12267 3 107 186 284
12268 3 107 186 285
12269 1 107 186 288
12270 1 107 186 205
12271 1 284 186 285
12272 2 284 186 288
12273 1 284 186 205
12274 1 285 186 288
12275 2 285 186 205
12276 1 288 186 205
12277 1 166 187 168
12278 2 166 187 170
12279 1 166 187 185
12280 2 166 187 186
12281 3 166 187 188
12282 3 166 187 189
12283 4 166 187 190
12284 1 166 187 268
12285 1 166 187 285
12286 3 166 187 288
12287 3 166 187 289
12288 1 168 187 170
12289 1 168 187 185
12290 3 168 187 186
12291 2 168 187 188
12292 1 168 187 189
12293 3 168 187 190
12294 2 168 187 268
12295 3 168 187 285
12296 4 168 187 288
12297 3 168 187 289
12298 3 170 187 185
12299 4 170 187 186
12300 3 170 187 188
12301 1 170 187 189
12302 2 170 187 190
12303 1 170 187 268
12304 3 170 187 285
12305 3 170 187 288
12306 1 170 187 289
12307 1 185 187 186
12308 1 185 187 188
12309 2 185 187 189
12310 3 185 187 190
12311 3 185 187 268
12312 2 185 187 285
12313 3 185 187 288
12314 4 185 187 289
12315 1 186 187 188
12316 3 186 187 189
12317 2 186 187 190
12318 3 186 187 268
12319 1 186 187 285
12320 1 186 187 288
12321 3 186 187 289
12322 1 188 187 189
12323 1 188 187 190
12324 4 188 187 268
12325 3 188 187 285
12326 2 188 187 288
12327 3 188 187 289
12328 1 189 187 190
12329 3 189 187 268
12330 4 189 187 285
12331 3 189 187 288
12332 2 189 187 289
12333 3 190 187 268
12334 3 190 187 285
12335 1 190 187 288
12336 1 190 187 289
12337 1 268 187 285
12338 2 268 187 288
12339 1 268 187 289
12340 1 285 187 288
12341 2 285 187 289
12342 1 288 187 289
12343 1 86 188 87
12344 2 86 188 90
12345 1 86 188 7
12346 1 86 188 185
12347 2 86 188 186
12348 3 86 188 187
12349 3 86 188 189
12350 4 86 188 190
12351 1 86 188 105
12352 3 86 188 107
12353 3 86 188 109
12354 1 87 188 90
12355 2 87 188 7
12356 1 87 188 185
12357 3 87 188 186
12358 2 87 188 187
12359 1 87 188 189
12360 3 87 188 190
12361 3 87 188 105
12362 4 87 188 107
12363 3 87 188 109
12364 1 90 188 7
12365 3 90 188 185
12366 4 90 188 186
12367 3 90 188 187
12368 1 90 188 189
12369 2 90 188 190
12370 3 90 188 105
12371 3 90 188 107
12372 1 90 188 109
12373 3 7 188 185
12374 3 7 188 186
12375 4 7 188 187
12376 3 7 188 189
12377 3 7 188 190
12378 1 7 188 105
12379 2 7 188 107
12380 1 7 188 109
12381 1 185 188 186
12382 1 185 188 187
12383 2 185 188 189
12384 3 185 188 190
12385 2 185 188 105
12386 3 185 188 107
12387 4 185 188 109
12388 1 186 188 187
12389 3 186 188 189
12390 2 186 188 190
12391 1 186 188 105
12392 1 186 188 107
12393 3 186 188 109
12394 1 187 188 189
12395 1 187 188 190
12396 3 187 188 105
12397 2 187 188 107
12398 3 187 188 109
12399 1 189 188 190
12400 4 189 188 105
12401 3 189 188 107
12402 2 189 188 109
12403 3 190 188 105
12404 1 190 188 107
12405 1 190 188 109
12406 1 105 188 107
12407 2 105 188 109
12408 1 107 188 109
12409 1 70 189 87
12410 2 70 189 90
12411 1 70 189 91
12412 1 70 189 168
12413 2 70 189 170
12414 1 70 189 172
12415 3 70 189 187
12416 3 70 189 188
12417 4 70 189 190
12418 3 70 189 191
12419 3 70 189 192
12420 1 87 189 90
12421 2 87 189 91
12422 1 87 189 168
12423 3 87 189 170
12424 3 87 189 172
12425 2 87 189 187
12426 1 87 189 188
12427 3 87 189 190
12428 4 87 189 191
12429 3 87 189 192
12430 1 90 189 91
12431 3 90 189 168
12432 4 90 189 170
12433 3 90 189 172
12434 3 90 189 187
12435 1 90 189 188
12436 2 90 189 190
12437 3 90 189 191
12438 1 90 189 192
12439 3 91 189 168
12440 3 91 189 170
12441 1 91 189 172
12442 4 91 189 187
12443 3 91 189 188
12444 3 91 189 190
12445 2 91 189 191
12446 1 91 189 192
12447 1 168 189 170
12448 2 168 189 172
12449 1 168 189 187
12450 2 168 189 188
12451 3 168 189 190
12452 3 168 189 191
12453 4 168 189 192
12454 1 170 189 172
12455 1 170 189 187
12456 3 170 189 188
12457 2 170 189 190
12458 1 170 189 191
12459 3 170 189 192
12460 3 172 189 187
12461 4 172 189 188
12462 3 172 189 190
12463 1 172 189 191
12464 2 172 189 192
12465 1 187 189 188
12466 1 187 189 190
12467 2 187 189 191
12468 3 187 189 192
12469 1 188 189 190
12470 3 188 189 191
12471 2 188 189 192
12472 1 190 189 191
12473 1 190 189 192
12474 1 191 189 192
12475 1 187 190 188
12476 1 187 190 189
12477 2 187 190 191
12478 3 187 190 192
12479 2 187 190 107
12480 3 187 190 109
12481 4 187 190 111
12482 1 187 190 288
12483 1 187 190 289
12484 3 187 190 292
12485 3 187 190 209
12486 1 188 190 189
12487 3 188 190 191
12488 2 188 190 192
12489 1 188 190 107
12490 1 188 190 109
12491 3 188 190 111
12492 2 188 190 288
12493 3 188 190 289
12494 4 188 190 292
12495 3 188 190 209
12496 1 189 190 191
12497 1 189 190 192
12498 3 189 190 107
12499 2 189 190 109
12500 3 189 190 111
12501 3 189 190 288
12502 2 189 190 289
12503 3 189 190 292
12504 4 189 190 209
12505 1 191 190 192
12506 4 191 190 107
12507 3 191 190 109
12508 2 191 190 111
12509 3 191 190 288
12510 1 191 190 289
12511 1 191 190 292
12512 3 191 190 209
12513 3 192 190 107
12514 1 192 190 109
12515 1 192 190 111
12516 4 192 190 288
12517 3 192 190 289
12518 2 192 190 292
12519 3 192 190 209
12520 1 107 190 109
12521 2 107 190 111
12522 1 107 190 288
12523 3 107 190 289
12524 3 107 190 292
12525 1 107 190 209
12526 1 109 190 111
12527 3 109 190 288
12528 4 109 190 289
12529 3 109 190 292
12530 2 109 190 209
12531 3 111 190 288
12532 3 111 190 289
12533 1 111 190 292
12534 1 111 190 209
12535 1 288 190 289
12536 2 288 190 292
12537 1 288 190 209
12538 1 289 190 292
12539 2 289 190 209
12540 1 292 190 209
12541 1 170 191 172
12542 2 170 191 174
12543 1 170 191 189
12544 2 170 191 190
12545 3 170 191 192
12546 3 170 191 193
12547 4 170 191 194
12548 1 170 191 272
12549 1 170 191 289
12550 3 170 191 292
12551 3 170 191 293
12552 1 172 191 174
12553 1 172 191 189
12554 3 172 191 190
12555 2 172 191 192
12556 1 172 191 193
12557 3 172 191 194
12558 2 172 191 272
12559 3 172 191 289
12560 4 172 191 292
12561 3 172 191 293
12562 3 174 191 189
12563 4 174 191 190
12564 3 174 191 192
12565 1 174 191 193
12566 2 174 191 194
12567 1 174 191 272
12568 3 174 191 289
12569 3 174 191 292
12570 1 174 191 293
12571 1 189 191 190
12572 1 189 191 192
12573 2 189 191 193
12574 3 189 191 194
12575 3 189 191 272
12576 2 189 191 289
12577 3 189 191 292
12578 4 189 191 293
12579 1 190 191 192
12580 3 190 191 193
12581 2 190 191 194
12582 3 190 191 272
12583 1 190 191 289
12584 1 190 191 292
12585 3 190 191 293
12586 1 192 191 193
12587 1 192 191 194
12588 4 192 191 272
12589 3 192 191 289
12590 2 192 191 292
12591 3 192 191 293
12592 1 193 191 194
12593 3 193 191 272
12594 4 193 191 289
12595 3 193 191 292
12596 2 193 191 293
12597 3 194 191 272
12598 3 194 191 289
12599 1 194 191 292
12600 1 194 191 293
12601 1 272 191 289
12602 2 272 191 292
12603 1 272 191 293
12604 1 289 191 292
12605 2 289 191 293
12606 1 292 191 293
12607 1 90 192 91
12608 2 90 192 94
12609 1 90 192 11
12610 1 90 192 189
12611 2 90 192 190
12612 3 90 192 191
12613 3 90 192 193
12614 4 90 192 194
12615 1 90 192 109
12616 3 90 192 111
12617 3 90 192 113
12618 1 91 192 94
12619 2 91 192 11
12620 1 91 192 189
12621 3 91 192 190
12622 2 91 192 191
12623 1 91 192 193
12624 3 91 192 194
12625 3 91 192 109
12626 4 91 192 111
12627 3 91 192 113
12628 1 94 192 11
12629 3 94 192 189
12630 4 94 192 190
12631 3 94 192 191
12632 1 94 192 193
12633 2 94 192 194
12634 3 94 192 109
12635 3 94 192 111
12636 1 94 192 113
12637 3 11 192 189
12638 3 11 192 190
12639 4 11 192 191
12640 3 11 192 193
12641 3 11 192 194
12642 1 11 192 109
12643 2 11 192 111
12644 1 11 192 113
12645 1 189 192 190
12646 1 189 192 191
12647 2 189 192 193
12648 3 189 192 194
12649 2 189 192 109
12650 3 189 192 111
12651 4 189 192 113
12652 1 190 192 191
12653 3 190 192 193
12654 2 190 192 194
12655 1 190 192 109
12656 1 190 192 111
12657 3 190 192 113
12658 1 191 192 193
12659 1 191 192 194
12660 3 191 192 109
12661 2 191 192 111
12662 3 191 192 113
12663 1 193 192 194
12664 4 193 192 109
12665 3 193 192 111
12666 2 193 192 113
12667 3 194 192 109
12668 1 194 192 111
12669 1 194 192 113
12670 1 109 192 111
12671 2 109 192 113
12672 1 111 192 113
12673 1 74 193 91
12674 2 74 193 94
12675 1 74 193 95
12676 1 74 193 172
12677 2 74 193 174
12678 1 74 193 176
12679 3 74 193 191
12680 3 74 193 192
12681 4 74 193 194
12682 3 74 193 195
12683 3 74 193 196
12684 1 91 193 94
12685 2 91 193 95
12686 1 91 193 172
12687 3 91 193 174
12688 3 91 193 176
12689 2 91 193 191
12690 1 91 193 192
12691 3 91 193 194
12692 4 91 193 195
12693 3 91 193 196
12694 1 94 193 95
12695 3 94 193 172
12696 4 94 193 174
12697 3 94 193 176
12698 3 94 193 191
12699 1 94 193 192
12700 2 94 193 194
12701 3 94 193 195
12702 1 94 193 196
12703 3 95 193 172
12704 3 95 193 174
12705 1 95 193 176
12706 4 95 193 191
12707 3 95 193 192
12708 3 95 193 194
12709 2 95 193 195
12710 1 95 193 196
12711 1 172 193 174
12712 2 172 193 176
12713 1 172 193 191
12714 2 172 193 192
12715 3 172 193 194
12716 3 172 193 195
12717 4 172 193 196
12718 1 174 193 176
12719 1 174 193 191
12720 3 174 193 192
12721 2 174 193 194
12722 1 174 193 195
12723 3 174 193 196
12724 3 176 193 191
12725 4 176 193 192
12726 3 176 193 194
12727 1 176 193 195
12728 2 176 193 196
12729 1 191 193 192
12730 1 191 193 194
12731 2 191 193 195
12732 3 191 193 196
12733 1 192 193 194
12734 3 192 193 195
12735 2 192 193 196
12736 1 194 193 195
12737 1 194 193 196
12738 1 195 193 196
12739 1 191 194 192
12740 1 191 194 193
12741 2 191 194 195
12742 3 191 194 196
12743 2 191 194 111
12744 3 191 194 113
12745 4 191 194 115
12746 1 191 194 292
12747 1 191 194 293
12748 3 191 194 296
12749 3 191 194 213
12750 1 192 194 193
12751 3 192 194 195
12752 2 192 194 196
12753 1 192 194 111
12754 1 192 194 113
12755 3 192 194 115
12756 2 192 194 292
12757 3 192 194 293
12758 4 192 194 296
12759 3 192 194 213
12760 1 193 194 195
12761 1 193 194 196
12762 3 193 194 111
12763 2 193 194 113
12764 3 193 194 115
12765 3 193 194 292
12766 2 193 194 293
12767 3 193 194 296
12768 4 193 194 213
12769 1 195 194 196
12770 4 195 194 111
12771 3 195 194 113
12772 2 195 194 115
12773 3 195 194 292
12774 1 195 194 293
12775 1 195 194 296
12776 3 195 194 213
12777 3 196 194 111
12778 1 196 194 113
12779 1 196 194 115
12780 4 196 194 292
12781 3 196 194 293
12782 2 196 194 296
12783 3 196 194 213
12784 1 111 194 113
12785 2 111 194 115
12786 1 111 194 292
12787 3 111 194 293
12788 3 111 194 296
12789 1 111 194 213
12790 1 113 194 115
12791 3 113 194 292
12792 4 113 194 293
12793 3 113 194 296
12794 2 113 194 213
12795 3 115 194 292
12796 3 115 194 293
12797 1 115 194 296
12798 1 115 194 213
12799 1 292 194 293
12800 2 292 194 296
12801 1 292 194 213
12802 1 293 194 296
12803 2 293 194 213
12804 1 296 194 213
12805 1 174 195 176
12806 2 174 195 178
12807 1 174 195 193
12808 2 174 195 194
12809 3 174 195 196
12810 3 174 195 197
12811 4 174 195 198
12812 1 174 195 276
12813 1 174 195 293
12814 3 174 195 296
12815 3 174 195 297
12816 1 176 195 178
12817 1 176 195 193
12818 3 176 195 194
12819 2 176 195 196
12820 1 176 195 197
12821 3 176 195 198
12822 2 176 195 276
12823 3 176 195 293
12824 4 176 195 296
12825 3 176 195 297
12826 3 178 195 193
12827 4 178 195 194
12828 3 178 195 196
12829 1 178 195 197
12830 2 178 195 198
12831 1 178 195 276
12832 3 178 195 293
12833 3 178 195 296
12834 1 178 195 297
12835 1 193 195 194
12836 1 193 195 196
12837 2 193 195 197
12838 3 193 195 198
12839 3 193 195 276
12840 2 193 195 293
12841 3 193 195 296
12842 4 193 195 297
12843 1 194 195 196
12844 3 194 195 197
12845 2 194 195 198
12846 3 194 195 276
12847 1 194 195 293
12848 1 194 195 296
12849 3 194 195 297
12850 1 196 195 197
12851 1 196 195 198
12852 4 196 195 276
12853 3 196 195 293
12854 2 196 195 296
12855 3 196 195 297
12856 1 197 195 198
12857 3 197 195 276
12858 4 197 195 293
12859 3 197 195 296
12860 2 197 195 297
12861 3 198 195 276
12862 3 198 195 293
12863 1 198 195 296
12864 1 198 195 297
12865 1 276 195 293
12866 2 276 195 296
12867 1 276 195 297
12868 1 293 195 296
12869 2 293 195 297
12870 1 296 195 297
12871 1 94 196 95
12872 2 94 196 98
12873 1 94 196 15
12874 1 94 196 193
12875 2 94 196 194
12876 3 94 196 195
12877 3 94 196 197
12878 4 94 196 198
12879 1 94 196 113
12880 3 94 196 115
12881 3 94 196 117
12882 1 95 196 98
12883 2 95 196 15
12884 1 95 196 193
12885 3 95 196 194
12886 2 95 196 195
12887 1 95 196 197
12888 3 95 196 198
12889 3 95 196 113
12890 4 95 196 115
12891 3 95 196 117
12892 1 98 196 15
12893 3 98 196 193
12894 4 98 196 194
12895 3 98 196 195
12896 1 98 196 197
12897 2 98 196 198
12898 3 98 196 113
12899 3 98 196 115
12900 1 98 196 117
12901 3 15 196 193
12902 3 15 196 194
12903 4 15 196 195
12904 3 15 196 197
12905 3 15 196 198
12906 1 15 196 113
12907 2 15 196 115
12908 1 15 196 117
12909 1 193 196 194
12910 1 193 196 195
12911 2 193 196 197
12912 3 193 196 198
12913 2 193 196 113
12914 3 193 196 115
12915 4 193 196 117
12916 1 194 196 195
12917 3 194 196 197
12918 2 194 196 198
12919 1 194 196 113
12920 1 194 196 115
12921 3 194 196 117
12922 1 195 196 197
12923 1 195 196 198
12924 3 195 196 113
12925 2 195 196 115
12926 3 195 196 117
12927 1 197 196 198
12928 4 197 196 113
12929 3 197 196 115
12930 2 197 196 117
12931 3 198 196 113
12932 1 198 196 115
12933 1 198 196 117
12934 1 113 196 115
12935 2 113 196 117
12936 1 115 196 117
12937 1 78 197 95
12938 2 78 197 98
12939 1 78 197 99
12940 1 78 197 176
12941 2 78 197 178
12942 1 78 197 180
12943 3 78 197 195
12944 3 78 197 196
12945 4 78 197 198
12946 3 78 197 199
12947 3 78 197 200
12948 1 95 197 98
12949 2 95 197 99
12950 1 95 197 176
12951 3 95 197 178
12952 3 95 197 180
12953 2 95 197 195
12954 1 95 197 196
12955 3 95 197 198
12956 4 95 197 199
12957 3 95 197 200
12958 1 98 197 99
12959 3 98 197 176
12960 4 98 197 178
12961 3 98 197 180
12962 3 98 197 195
12963 1 98 197 196
12964 2 98 197 198
12965 3 98 197 199
12966 1 98 197 200
12967 3 99 197 176
12968 3 99 197 178
12969 1 99 197 180
12970 4 99 197 195
12971 3 99 197 196
12972 3 99 197 198
12973 2 99 197 199
12974 1 99 197 200
12975 1 176 197 178
12976 2 176 197 180
12977 1 176 197 195
12978 2 176 197 196
12979 3 176 197 198
12980 3 176 197 199
12981 4 176 197 200
12982 1 178 197 180
12983 1 178 197 195
12984 3 178 197 196
12985 2 178 197 198
12986 1 178 197 199
12987 3 178 197 200
12988 3 180 197 195
12989 4 180 197 196
12990 3 180 197 198
12991 1 180 197 199
12992 2 180 197 200
12993 1 195 197 196
12994 1 195 197 198
12995 2 195 197 199
12996 3 195 197 200
12997 1 196 197 198
12998 3 196 197 199
12999 2 196 197 200
13000 1 198 197 199
13001 1 198 197 200
13002 1 199 197 200
13003 1 195 198 196
13004 1 195 198 197
13005 2 195 198 199
13006 3 195 198 200
13007 2 195 198 115
13008 3 195 198 117
13009 4 195 198 119
13010 1 195 198 296
13011 1 195 198 297
13012 3 195 198 300
13013 3 195 198 217
13014 1 196 198 197
13015 3 196 198 199
13016 2 196 198 200
13017 1 196 198 115
13018 1 196 198 117
13019 3 196 198 119
13020 2 196 198 296
13021 3 196 198 297
13022 4 196 198 300
13023 3 196 198 217
13024 1 197 198 199
13025 1 197 198 200
13026 3 197 198 115
13027 2 197 198 117
13028 3 197 198 119
13029 3 197 198 296
13030 2 197 198 297
13031 3 197 198 300
13032 4 197 198 217
13033 1 199 198 200
13034 4 199 198 115
13035 3 199 198 117
13036 2 199 198 119
13037 3 199 198 296
13038 1 199 198 297
13039 1 199 198 300
13040 3 199 198 217
13041 3 200 198 115
13042 1 200 198 117
13043 1 200 198 119
13044 4 200 198 296
13045 3 200 198 297
13046 2 200 198 300
13047 3 200 198 217
13048 1 115 198 117
13049 2 115 198 119
13050 1 115 198 296
13051 3 115 198 297
13052 3 115 198 300
13053 1 115 198 217
13054 1 117 198 119
13055 3 117 198 296
13056 4 117 198 297
13057 3 117 198 300
13058 2 117 198 217
13059 3 119 198 296
13060 3 119 198 297
13061 1 119 198 300
13062 1 119 198 217
13063 1 296 198 297
13064 2 296 198 300
13065 1 296 198 217
13066 1 297 198 300
13067 2 297 198 217
13068 1 300 198 217
13069 1 178 199 180
13070 2 178 199 162
13071 1 178 199 197
13072 2 178 199 198
13073 3 178 199 200
13074 3 178 199 181
13075 4 178 199 182
13076 1 178 199 280
13077 1 178 199 297
13078 3 178 199 300
13079 3 178 199 281
13080 1 180 199 162
13081 1 180 199 197
13082 3 180 199 198
13083 2 180 199 200
13084 1 180 199 181
13085 3 180 199 182
13086 2 180 199 280
13087 3 180 199 297
13088 4 180 199 300
13089 3 180 199 281
13090 3 162 199 197
13091 4 162 199 198
13092 3 162 199 200
13093 1 162 199 181
13094 2 162 199 182
13095 1 162 199 280
13096 3 162 199 297
13097 3 162 199 300
13098 1 162 199 281
13099 1 197 199 198
13100 1 197 199 200
13101 2 197 199 181
13102 3 197 199 182
13103 3 197 199 280
13104 2 197 199 297
13105 3 197 199 300
13106 4 197 199 281
13107 1 198 199 200
13108 3 198 199 181
13109 2 198 199 182
13110 3 198 199 280
13111 1 198 199 297
13112 1 198 199 300
13113 3 198 199 281
13114 1 200 199 181
13115 1 200 199 182
13116 4 200 199 280
13117 3 200 199 297
13118 2 200 199 300
13119 3 200 199 281
13120 1 181 199 182
13121 3 181 199 280
13122 4 181 199 297
13123 3 181 199 300
13124 2 181 199 281
13125 3 182 199 280
13126 3 182 199 297
13127 1 182 199 300
13128 1 182 199 281
13129 1 280 199 297
13130 2 280 199 300
13131 1 280 199 281
13132 1 297 199 300
13133 2 297 199 281
13134 1 300 199 281
13135 1 98 200 99
13136 2 98 200 82
13137 1 98 200 19
13138 1 98 200 197
13139 2 98 200 198
13140 3 98 200 199
13141 3 98 200 181
13142 4 98 200 182
13143 1 98 200 117
13144 3 98 200 119
13145 3 98 200 101
13146 1 99 200 82
13147 2 99 200 19
13148 1 99 200 197
13149 3 99 200 198
13150 2 99 200 199
13151 1 99 200 181
13152 3 99 200 182
13153 3 99 200 117
13154 4 99 200 119
13155 3 99 200 101
13156 1 82 200 19
13157 3 82 200 197
13158 4 82 200 198
13159 3 82 200 199
13160 1 82 200 181
13161 2 82 200 182
13162 3 82 200 117
13163 3 82 200 119
13164 1 82 200 101
13165 3 19 200 197
13166 3 19 200 198
13167 4 19 200 199
13168 3 19 200 181
13169 3 19 200 182
13170 1 19 200 117
13171 2 19 200 119
13172 1 19 200 101
13173 1 197 200 198
13174 1 197 200 199
13175 2 197 200 181
13176 3 197 200 182
13177 2 197 200 117
13178 3 197 200 119
13179 4 197 200 101
13180 1 198 200 199
13181 3 198 200 181
13182 2 198 200 182
13183 1 198 200 117
13184 1 198 200 119
13185 3 198 200 101
13186 1 199 200 181
13187 1 199 200 182
13188 3 199 200 117
13189 2 199 200 119
13190 3 199 200 101
13191 1 181 200 182
13192 4 181 200 117
13193 3 181 200 119
13194 2 181 200 101
13195 3 182 200 117
13196 1 182 200 119
13197 1 182 200 101
13198 1 117 200 119
13199 2 117 200 101
13200 1 119 200 101
13201 1 182 201 119
13202 2 182 201 102
13203 1 182 201 103
13204 1 182 201 300
13205 2 182 201 282
13206 1 182 201 284
13207 3 182 201 219
13208 3 182 201 220
13209 4 182 201 202
13210 3 182 201 203
13211 3 182 201 204
13212 1 119 201 102
13213 2 119 201 103
13214 1 119 201 300
13215 3 119 201 282
13216 3 119 201 284
13217 2 119 201 219
13218 1 119 201 220
13219 3 119 201 202
13220 4 119 201 203
13221 3 119 201 204
13222 1 102 201 103
13223 3 102 201 300
13224 4 102 201 282
13225 3 102 201 284
13226 3 102 201 219
13227 1 102 201 220
13228 2 102 201 202
13229 3 102 201 203
13230 1 102 201 204
13231 3 103 201 300
13232 3 103 201 282
13233 1 103 201 284
13234 4 103 201 219
13235 3 103 201 220
13236 3 103 201 202
13237 2 103 201 203
13238 1 103 201 204
13239 1 300 201 282
13240 2 300 201 284
13241 1 300 201 219
13242 2 300 201 220
13243 3 300 201 202
13244 3 300 201 203
13245 4 300 201 204
13246 1 282 201 284
13247 1 282 201 219
13248 3 282 201 220
13249 2 282 201 202
13250 1 282 201 203
13251 3 282 201 204
13252 3 284 201 219
13253 4 284 201 220
13254 3 284 201 202
13255 1 284 201 203
13256 2 284 201 204
13257 1 219 201 220
13258 1 219 201 202
13259 2 219 201 203
13260 3 219 201 204
13261 1 220 201 202
13262 3 220 201 203
13263 2 220 201 204
13264 1 202 201 203
13265 1 202 201 204
13266 1 203 201 204
13267 1 219 202 220
13268 1 219 202 201
13269 2 219 202 203
13270 3 219 202 204
13271 2 219 202 239
13272 3 219 202 221
13273 4 219 202 223
13274 1 219 202 320
13275 1 219 202 301
13276 3 219 202 304
13277 3 219 202 321
13278 1 220 202 201
13279 3 220 202 203
13280 2 220 202 204
13281 1 220 202 239
13282 1 220 202 221
13283 3 220 202 223
13284 2 220 202 320
13285 3 220 202 301
13286 4 220 202 304
13287 3 220 202 321
13288 1 201 202 203
13289 1 201 202 204
13290 3 201 202 239
13291 2 201 202 221
13292 3 201 202 223
13293 3 201 202 320
13294 2 201 202 301
13295 3 201 202 304
13296 4 201 202 321
13297 1 203 202 204
13298 4 203 202 239
13299 3 203 202 221
13300 2 203 202 223
13301 3 203 202 320
13302 1 203 202 301
13303 1 203 202 304
13304 3 203 202 321
13305 3 204 202 239
13306 1 204 202 221
13307 1 204 202 223
13308 4 204 202 320
13309 3 204 202 301
13310 2 204 202 304
13311 3 204 202 321
13312 1 239 202 221
13313 2 239 202 223
13314 1 239 202 320
13315 3 239 202 301
13316 3 239 202 304
13317 1 239 202 321
13318 1 221 202 223
13319 3 221 202 320
13320 4 221 202 301
13321 3 221 202 304
13322 2 221 202 321
13323 3 223 202 320
13324 3 223 202 301
13325 1 223 202 304
13326 1 223 202 321
13327 1 320 202 301
13328 2 320 202 304
13329 1 320 202 321
13330 1 301 202 304
13331 2 301 202 321
13332 1 304 202 321
13333 1 282 203 284
13334 2 282 203 286
13335 1 282 203 201
13336 2 282 203 202
13337 3 282 203 204
13338 3 282 203 205
13339 4 282 203 206
13340 1 282 203 384
13341 1 282 203 301
13342 3 282 203 304
13343 3 282 203 305
13344 1 284 203 286
13345 1 284 203 201
13346 3 284 203 202
13347 2 284 203 204
13348 1 284 203 205
13349 3 284 203 206
13350 2 284 203 384
13351 3 284 203 301
13352 4 284 203 304
13353 3 284 203 305
13354 3 286 203 201
13355 4 286 203 202
13356 3 286 203 204
13357 1 286 203 205
13358 2 286 203 206
13359 1 286 203 384
13360 3 286 203 301
13361 3 286 203 304
13362 1 286 203 305
13363 1 201 203 202
13364 1 201 203 204
13365 2 201 203 205
13366 3 201 203 206
13367 3 201 203 384
13368 2 201 203 301
13369 3 201 203 304
13370 4 201 203 305
13371 1 202 203 204
13372 3 202 203 205
13373 2 202 203 206
13374 3 202 203 384
13375 1 202 203 301
13376 1 202 203 304
13377 3 202 203 305
13378 1 204 203 205
13379 1 204 203 206
13380 4 204 203 384
13381 3 204 203 301
13382 2 204 203 304
13383 3 204 203 305
13384 1 205 203 206
13385 3 205 203 384
13386 4 205 203 301
13387 3 205 203 304
13388 2 205 203 305
13389 3 206 203 384
13390 3 206 203 301
13391 1 206 203 304
13392 1 206 203 305
13393 1 384 203 301
13394 2 384 203 304
13395 1 384 203 305
13396 1 301 203 304
13397 2 301 203 305
13398 1 304 203 305
13399 1 102 204 103
13400 2 102 204 106
13401 1 102 204 123
13402 1 102 204 201
13403 2 102 204 202
13404 3 102 204 203
13405 3 102 204 205
13406 4 102 204 206
13407 1 102 204 221
13408 3 102 204 223
13409 3 102 204 225
13410 1 103 204 106
13411 2 103 204 123
13412 1 103 204 201
13413 3 103 204 202
13414 2 103 204 203
13415 1 103 204 205
13416 3 103 204 206
13417 3 103 204 221
13418 4 103 204 223
13419 3 103 204 225
13420 1 106 204 123
13421 3 106 204 201
13422 4 106 204 202
13423 3 106 204 203
13424 1 106 204 205
13425 2 106 204 206
13426 3 106 204 221
13427 3 106 204 223
13428 1 106 204 225
13429 3 123 204 201
13430 3 123 204 202
13431 4 123 204 203
13432 3 123 204 205
13433 3 123 204 206
13434 1 123 204 221
13435 2 123 204 223
13436 1 123 204 225
13437 1 201 204 202
13438 1 201 204 203
13439 2 201 204 205
13440 3 201 204 206
13441 2 201 204 221
13442 3 201 204 223
13443 4 201 204 225
13444 1 202 204 203
13445 3 202 204 205
13446 2 202 204 206
13447 1 202 204 221
13448 1 202 204 223
13449 3 202 204 225
13450 1 203 204 205
13451 1 203 204 206
13452 3 203 204 221
13453 2 203 204 223
13454 3 203 204 225
13455 1 205 204 206
13456 4 205 204 221
13457 3 205 204 223
13458 2 205 204 225
13459 3 206 204 221
13460 1 206 204 223
13461 1 206 204 225
13462 1 221 204 223
13463 2 221 204 225
13464 1 223 204 225
13465 1 186 205 103
13466 2 186 205 106
13467 1 186 205 107
13468 1 186 205 284
13469 2 186 205 286
13470 1 186 205 288
13471 3 186 205 203
13472 3 186 205 204
13473 4 186 205 206
13474 3 186 205 207
13475 3 186 205 208
13476 1 103 205 106
13477 2 103 205 107
13478 1 103 205 284
13479 3 103 205 286
13480 3 103 205 288
13481 2 103 205 203
13482 1 103 205 204
13483 3 103 205 206
13484 4 103 205 207
13485 3 103 205 208
13486 1 106 205 107
13487 3 106 205 284
13488 4 106 205 286
13489 3 106 205 288
13490 3 106 205 203
13491 1 106 205 204
13492 2 106 205 206
13493 3 106 205 207
13494 1 106 205 208
13495 3 107 205 284
13496 3 107 205 286
13497 1 107 205 288
13498 4 107 205 203
13499 3 107 205 204
13500 3 107 205 206
13501 2 107 205 207
13502 1 107 205 208
13503 1 284 205 286
13504 2 284 205 288
13505 1 284 205 203
13506 2 284 205 204
13507 3 284 205 206
13508 3 284 205 207
13509 4 284 205 208
13510 1 286 205 288
13511 1 286 205 203
13512 3 286 205 204
13513 2 286 205 206
13514 1 286 205 207
13515 3 286 205 208
13516 3 288 205 203
13517 4 288 205 204
13518 3 288 205 206
13519 1 288 205 207
13520 2 288 205 208
13521 1 203 205 204
13522 1 203 205 206
13523 2 203 205 207
13524 3 203 205 208
13525 1 204 205 206
13526 3 204 205 207
13527 2 204 205 208
13528 1 206 205 207
13529 1 206 205 208
13530 1 207 205 208
13531 1 203 206 204
13532 1 203 206 205
13533 2 203 206 207
13534 3 203 206 208
13535 2 203 206 223
13536 3 203 206 225
13537 4 203 206 227
13538 1 203 206 304
13539 1 203 206 305
13540 3 203 206 308
13541 3 203 206 325
13542 1 204 206 205
13543 3 204 206 207
13544 2 204 206 208
13545 1 204 206 223
13546 1 204 206 225
13547 3 204 206 227
13548 2 204 206 304
13549 3 204 206 305
13550 4 204 206 308
13551 3 204 206 325
13552 1 205 206 207
13553 1 205 206 208
13554 3 205 206 223
13555 2 205 206 225
13556 3 205 206 227
13557 3 205 206 304
13558 2 205 206 305
13559 3 205 206 308
13560 4 205 206 325
13561 1 207 206 208
13562 4 207 206 223
13563 3 207 206 225
13564 2 207 206 227
13565 3 207 206 304
13566 1 207 206 305
13567 1 207 206 308
13568 3 207 206 325
13569 3 208 206 223
13570 1 208 206 225
13571 1 208 206 227
13572 4 208 206 304
13573 3 208 206 305
13574 2 208 206 308
13575 3 208 206 325
13576 1 223 206 225
13577 2 223 206 227
13578 1 223 206 304
13579 3 223 206 305
13580 3 223 206 308
13581 1 223 206 325
13582 1 225 206 227
13583 3 225 206 304
13584 4 225 206 305
13585 3 225 206 308
13586 2 225 206 325
13587 3 227 206 304
13588 3 227 206 305
13589 1 227 206 308
13590 1 227 206 325
13591 1 304 206 305
13592 2 304 206 308
13593 1 304 206 325
13594 1 305 206 308
13595 2 305 206 325
13596 1 308 206 325
13597 1 286 207 288
13598 2 286 207 290
13599 1 286 207 205
13600 2 286 207 206
13601 3 286 207 208
13602 3 286 207 209
13603 4 286 207 210
13604 1 286 207 388
13605 1 286 207 305
13606 3 286 207 308
13607 3 286 207 309
13608 1 288 207 290
13609 1 288 207 205
13610 3 288 207 206
13611 2 288 207 208
13612 1 288 207 209
13613 3 288 207 210
13614 2 288 207 388
13615 3 288 207 305
13616 4 288 207 308
13617 3 288 207 309
13618 3 290 207 205
13619 4 290 207 206
13620 3 290 207 208
13621 1 290 207 209
13622 2 290 207 210
13623 1 290 207 388
13624 3 290 207 305
13625 3 290 207 308
13626 1 290 207 309
13627 1 205 207 206
13628 1 205 207 208
13629 2 205 207 209
13630 3 205 207 210
13631 3 205 207 388
13632 2 205 207 305
13633 3 205 207 308
13634 4 205 207 309
13635 1 206 207 208
13636 3 206 207 209
13637 2 206 207 210
13638 3 206 207 388
13639 1 206 207 305
13640 1 206 207 308
13641 3 206 207 309
13642 1 208 207 209
13643 1 208 207 210
13644 4 208 207 388
13645 3 208 207 305
13646 2 208 207 308
13647 3 208 207 309
13648 1 209 207 210
13649 3 209 207 388
13650 4 209 207 305
13651 3 209 207 308
13652 2 209 207 309
13653 3 210 207 388
13654 3 210 207 305
13655 1 210 207 308
13656 1 210 207 309
13657 1 388 207 305
13658 2 388 207 308
13659 1 388 207 309
13660 1 305 207 308
13661 2 305 207 309
13662 1 308 207 309
13663 1 106 208 107
13664 2 106 208 110
13665 1 106 208 127
13666 1 106 208 205
13667 2 106 208 206
13668 3 106 208 207
13669 3 106 208 209
13670 4 106 208 210
13671 1 106 208 225
13672 3 106 208 227
13673 3 106 208 229
13674 1 107 208 110
13675 2 107 208 127
13676 1 107 208 205
13677 3 107 208 206
13678 2 107 208 207
13679 1 107 208 209
13680 3 107 208 210
13681 3 107 208 225
13682 4 107 208 227
13683 3 107 208 229
13684 1 110 208 127
13685 3 110 208 205
13686 4 110 208 206
13687 3 110 208 207
13688 1 110 208 209
13689 2 110 208 210
13690 3 110 208 225
13691 3 110 208 227
13692 1 110 208 229
13693 3 127 208 205
13694 3 127 208 206
13695 4 127 208 207
13696 3 127 208 209
13697 3 127 208 210
13698 1 127 208 225
13699 2 127 208 227
13700 1 127 208 229
13701 1 205 208 206
13702 1 205 208 207
13703 2 205 208 209
13704 3 205 208 210
13705 2 205 208 225
13706 3 205 208 227
13707 4 205 208 229
13708 1 206 208 207
13709 3 206 208 209
13710 2 206 208 210
13711 1 206 208 225
13712 1 206 208 227
13713 3 206 208 229
13714 1 207 208 209
13715 1 207 208 210
13716 3 207 208 225
13717 2 207 208 227
13718 3 207 208 229
13719 1 209 208 210
13720 4 209 208 225
13721 3 209 208 227
13722 2 209 208 229
13723 3 210 208 225
13724 1 210 208 227
13725 1 210 208 229
13726 1 225 208 227
13727 2 225 208 229
13728 1 227 208 229
13729 1 190 209 107
13730 2 190 209 110
13731 1 190 209 111
13732 1 190 209 288
13733 2 190 209 290
13734 1 190 209 292
13735 3 190 209 207
13736 3 190 209 208
13737 4 190 209 210
13738 3 190 209 211
13739 3 190 209 212
13740 1 107 209 110
13741 2 107 209 111
13742 1 107 209 288
13743 3 107 209 290
13744 3 107 209 292
13745 2 107 209 207
13746 1 107 209 208
13747 3 107 209 210
13748 4 107 209 211
13749 3 107 209 212
13750 1 110 209 111
13751 3 110 209 288
13752 4 110 209 290
13753 3 110 209 292
13754 3 110 209 207
13755 1 110 209 208
13756 2 110 209 210
13757 3 110 209 211
13758 1 110 209 212
13759 3 111 209 288
13760 3 111 209 290
13761 1 111 209 292
13762 4 111 209 207
13763 3 111 209 208
13764 3 111 209 210
13765 2 111 209 211
13766 1 111 209 212
13767 1 288 209 290
13768 2 288 209 292
13769 1 288 209 207
13770 2 288 209 208
13771 3 288 209 210
13772 3 288 209 211
13773 4 288 209 212
13774 1 290 209 292
13775 1 290 209 207
13776 3 290 209 208
13777 2 290 209 210
13778 1 290 209 211
13779 3 290 209 212
13780 3 292 209 207
13781 4 292 209 208
13782 3 292 209 210
13783 1 292 209 211
13784 2 292 209 212
13785 1 207 209 208
13786 1 207 209 210
13787 2 207 209 211
13788 3 207 209 212
13789 1 208 209 210
13790 3 208 209 211
13791 2 208 209 212
13792 1 210 209 211
13793 1 210 209 212
13794 1 211 209 212
13795 1 207 210 208
13796 1 207 210 209
13797 2 207 210 211
13798 3 207 210 212
13799 2 207 210 227
13800 3 207 210 229
13801 4 207 210 231
13802 1 207 210 308
13803 1 207 210 309
13804 3 207 210 312
13805 3 207 210 329
13806 1 208 210 209
13807 3 208 210 211
13808 2 208 210 212
13809 1 208 210 227
13810 1 208 210 229
13811 3 208 210 231
13812 2 208 210 308
13813 3 208 210 309
13814 4 208 210 312
13815 3 208 210 329
13816 1 209 210 211
13817 1 209 210 212
13818 3 209 210 227
13819 2 209 210 229
13820 3 209 210 231
13821 3 209 210 308
13822 2 209 210 309
13823 3 209 210 312
13824 4 209 210 329
13825 1 211 210 212
13826 4 211 210 227
13827 3 211 210 229
13828 2 211 210 231
13829 3 211 210 308
13830 1 211 210 309
13831 1 211 210 312
13832 3 211 210 329
13833 3 212 210 227
13834 1 212 210 229
13835 1 212 210 231
13836 4 212 210 308
13837 3 212 210 309
13838 2 212 210 312
13839 3 212 210 329
13840 1 227 210 229
13841 2 227 210 231
13842 1 227 210 308
13843 3 227 210 309
13844 3 227 210 312
13845 1 227 210 329
13846 1 229 210 231
13847 3 229 210 308
13848 4 229 210 309
13849 3 229 210 312
13850 2 229 210 329
13851 3 231 210 308
13852 3 231 210 309
13853 1 231 210 312
13854 1 231 210 329
13855 1 308 210 309
13856 2 308 210 312
13857 1 308 210 329
13858 1 309 210 312
13859 2 309 210 329
13860 1 312 210 329
13861 1 290 211 292
13862 2 290 211 294
13863 1 290 211 209
13864 2 290 211 210
13865 3 290 211 212
13866 3 290 211 213
13867 4 290 211 214
13868 1 290 211 392
13869 1 290 211 309
13870 3 290 211 312
13871 3 290 211 313
13872 1 292 211 294
13873 1 292 211 209
13874 3 292 211 210
13875 2 292 211 212
13876 1 292 211 213
13877 3 292 211 214
13878 2 292 211 392
13879 3 292 211 309
13880 4 292 211 312
13881 3 292 211 313
13882 3 294 211 209
13883 4 294 211 210
13884 3 294 211 212
13885 1 294 211 213
13886 2 294 211 214
13887 1 294 211 392
13888 3 294 211 309
13889 3 294 211 312
13890 1 294 211 313
13891 1 209 211 210
13892 1 209 211 212
13893 2 209 211 213
13894 3 209 211 214
13895 3 209 211 392
13896 2 209 211 309
13897 3 209 211 312
13898 4 209 211 313
13899 1 210 211 212
13900 3 210 211 213
13901 2 210 211 214
13902 3 210 211 392
13903 1 210 211 309
13904 1 210 211 312
13905 3 210 211 313
13906 1 212 211 213
13907 1 212 211 214
13908 4 212 211 392
13909 3 212 211 309
13910 2 212 211 312
13911 3 212 211 313
13912 1 213 211 214
13913 3 213 211 392
13914 4 213 211 309
13915 3 213 211 312
13916 2 213 211 313
13917 3 214 211 392
13918 3 214 211 309
13919 1 214 211 312
13920 1 214 211 313
13921 1 392 211 309
13922 2 392 211 312
13923 1 392 211 313
13924 1 309 211 312
13925 2 309 211 313
13926 1 312 211 313
13927 1 110 212 111
13928 2 110 212 114
13929 1 110 212 131
13930 1 110 212 209
13931 2 110 212 210
13932 3 110 212 211
13933 3 110 212 213
13934 4 110 212 214
13935 1 110 212 229
13936 3 110 212 231
13937 3 110 212 233
13938 1 111 212 114
13939 2 111 212 131
13940 1 111 212 209
13941 3 111 212 210
13942 2 111 212 211
13943 1 111 212 213
13944 3 111 212 214
13945 3 111 212 229
13946 4 111 212 231
13947 3 111 212 233
13948 1 114 212 131
13949 3 114 212 209
13950 4 114 212 210
13951 3 114 212 211
13952 1 114 212 213
13953 2 114 212 214
13954 3 114 212 229
13955 3 114 212 231
13956 1 114 212 233
13957 3 131 212 209
13958 3 131 212 210
13959 4 131 212 211
13960 3 131 212 213
13961 3 131 212 214
13962 1 131 212 229
13963 2 131 212 231
13964 1 131 212 233
13965 1 209 212 210
13966 1 209 212 211
13967 2 209 212 213
13968 3 209 212 214
13969 2 209 212 229
13970 3 209 212 231
13971 4 209 212 233
13972 1 210 212 211
13973 3 210 212 213
13974 2 210 212 214
13975 1 210 212 229
13976 1 210 212 231
13977 3 210 212 233
13978 1 211 212 213
13979 1 211 212 214
13980 3 211 212 229
13981 2 211 212 231
13982 3 211 212 233
13983 1 213 212 214
13984 4 213 212 229
13985 3 213 212 231
13986 2 213 212 233
13987 3 214 212 229
13988 1 214 212 231
13989 1 214 212 233
13990 1 229 212 231
13991 2 229 212 233
13992 1 231 212 233
13993 1 194 213 111
13994 2 194 213 114
13995 1 194 213 115
13996 1 194 213 292
13997 2 194 213 294
13998 1 194 213 296
13999 3 194 213 211
14000 3 194 213 212
14001 4 194 213 214
14002 3 194 213 215
14003 3 194 213 216
14004 1 111 213 114
14005 2 111 213 115
14006 1 111 213 292
14007 3 111 213 294
14008 3 111 213 296
14009 2 111 213 211
14010 1 111 213 212
14011 3 111 213 214
14012 4 111 213 215
14013 3 111 213 216
14014 1 114 213 115
14015 3 114 213 292
14016 4 114 213 294
14017 3 114 213 296
14018 3 114 213 211
14019 1 114 213 212
14020 2 114 213 214
14021 3 114 213 215
14022 1 114 213 216
14023 3 115 213 292
14024 3 115 213 294
14025 1 115 213 296
14026 4 115 213 211
14027 3 115 213 212
14028 3 115 213 214
14029 2 115 213 215
14030 1 115 213 216
14031 1 292 213 294
14032 2 292 213 296
14033 1 292 213 211
14034 2 292 213 212
14035 3 292 213 214
14036 3 292 213 215
14037 4 292 213 216
14038 1 294 213 296
14039 1 294 213 211
14040 3 294 213 212
14041 2 294 213 214
14042 1 294 213 215
14043 3 294 213 216
14044 3 296 213 211
14045 4 296 213 212
14046 3 296 213 214
14047 1 296 213 215
14048 2 296 213 216
14049 1 211 213 212
14050 1 211 213 214
14051 2 211 213 215
14052 3 211 213 216
14053 1 212 213 214
14054 3 212 213 215
14055 2 212 213 216
14056 1 214 213 215
14057 1 214 213 216
14058 1 215 213 216
14059 1 211 214 212
14060 1 211 214 213
14061 2 211 214 215
14062 3 211 214 216
14063 2 211 214 231
14064 3 211 214 233
14065 4 211 214 235
14066 1 211 214 312
14067 1 211 214 313
14068 3 211 214 316
14069 3 211 214 333
14070 1 212 214 213
14071 3 212 214 215
14072 2 212 214 216
14073 1 212 214 231
14074 1 212 214 233
14075 3 212 214 235
14076 2 212 214 312
14077 3 212 214 313
14078 4 212 214 316
14079 3 212 214 333
14080 1 213 214 215
14081 1 213 214 216
14082 3 213 214 231
14083 2 213 214 233
14084 3 213 214 235
14085 3 213 214 312
14086 2 213 214 313
14087 3 213 214 316
14088 4 213 214 333
14089 1 215 214 216
14090 4 215 214 231
14091 3 215 214 233
14092 2 215 214 235
14093 3 215 214 312
14094 1 215 214 313
14095 1 215 214 316
14096 3 215 214 333
14097 3 216 214 231
14098 1 216 214 233
14099 1 216 214 235
14100 4 216 214 312
14101 3 216 214 313
14102 2 216 214 316
14103 3 216 214 333
14104 1 231 214 233
14105 2 231 214 235
14106 1 231 214 312
14107 3 231 214 313
14108 3 231 214 316
14109 1 231 214 333
14110 1 233 214 235
14111 3 233 214 312
14112 4 233 214 313
14113 3 233 214 316
14114 2 233 214 333
14115 3 235 214 312
14116 3 235 214 313
14117 1 235 214 316
14118 1 235 214 333
14119 1 312 214 313
14120 2 312 214 316
14121 1 312 214 333
14122 1 313 214 316
14123 2 313 214 333
14124 1 316 214 333
14125 1 294 215 296
14126 2 294 215 298
14127 1 294 215 213
14128 2 294 215 214
14129 3 294 215 216
14130 3 294 215 217
14131 4 294 215 218
14132 1 294 215 396
14133 1 294 215 313
14134 3 294 215 316
14135 3 294 215 317
14136 1 296 215 298
14137 1 296 215 213
14138 3 296 215 214
14139 2 296 215 216
14140 1 296 215 217
14141 3 296 215 218
14142 2 296 215 396
14143 3 296 215 313
14144 4 296 215 316
14145 3 296 215 317
14146 3 298 215 213
14147 4 298 215 214
14148 3 298 215 216
14149 1 298 215 217
14150 2 298 215 218
14151 1 298 215 396
14152 3 298 215 313
14153 3 298 215 316
14154 1 298 215 317
14155 1 213 215 214
14156 1 213 215 216
14157 2 213 215 217
14158 3 213 215 218
14159 3 213 215 396
14160 2 213 215 313
14161 3 213 215 316
14162 4 213 215 317
14163 1 214 215 216
14164 3 214 215 217
14165 2 214 215 218
14166 3 214 215 396
14167 1 214 215 313
14168 1 214 215 316
14169 3 214 215 317
14170 1 216 215 217
14171 1 216 215 218
14172 4 216 215 396
14173 3 216 215 313
14174 2 216 215 316
14175 3 216 215 317
14176 1 217 215 218
14177 3 217 215 396
14178 4 217 215 313
14179 3 217 215 316
14180 2 217 215 317
14181 3 218 215 396
14182 3 218 215 313
14183 1 218 215 316
14184 1 218 215 317
14185 1 396 215 313
14186 2 396 215 316
14187 1 396 215 317
14188 1 313 215 316
14189 2 313 215 317
14190 1 316 215 317
14191 1 114 216 115
14192 2 114 216 118
14193 1 114 216 135
14194 1 114 216 213
14195 2 114 216 214
14196 3 114 216 215
14197 3 114 216 217
14198 4 114 216 218
14199 1 114 216 233
14200 3 114 216 235
14201 3 114 216 237
14202 1 115 216 118
14203 2 115 216 135
14204 1 115 216 213
14205 3 115 216 214
14206 2 115 216 215
14207 1 115 216 217
14208 3 115 216 218
14209 3 115 216 233
14210 4 115 216 235
14211 3 115 216 237
14212 1 118 216 135
14213 3 118 216 213
14214 4 118 216 214
14215 3 118 216 215
14216 1 118 216 217
14217 2 118 216 218
14218 3 118 216 233
14219 3 118 216 235
14220 1 118 216 237
14221 3 135 216 213
14222 3 135 216 214
14223 4 135 216 215
14224 3 135 216 217
14225 3 135 216 218
14226 1 135 216 233
14227 2 135 216 235
14228 1 135 216 237
14229 1 213 216 214
14230 1 213 216 215
14231 2 213 216 217
14232 3 213 216 218
14233 2 213 216 233
14234 3 213 216 235
14235 4 213 216 237
14236 1 214 216 215
14237 3 214 216 217
14238 2 214 216 218
14239 1 214 216 233
14240 1 214 216 235
14241 3 214 216 237
14242 1 215 216 217
14243 1 215 216 218
14244 3 215 216 233
14245 2 215 216 235
14246 3 215 216 237
14247 1 217 216 218
14248 4 217 216 233
14249 3 217 216 235
14250 2 217 216 237
14251 3 218 216 233
14252 1 218 216 235
14253 1 218 216 237
14254 1 233 216 235
14255 2 233 216 237
14256 1 235 216 237
14257 1 198 217 115
14258 2 198 217 118
14259 1 198 217 119
14260 1 198 217 296
14261 2 198 217 298
14262 1 198 217 300
14263 3 198 217 215
14264 3 198 217 216
14265 4 198 217 218
14266 3 198 217 219
14267 3 198 217 220
14268 1 115 217 118
14269 2 115 217 119
14270 1 115 217 296
14271 3 115 217 298
14272 3 115 217 300
14273 2 115 217 215
14274 1 115 217 216
14275 3 115 217 218
14276 4 115 217 219
14277 3 115 217 220
14278 1 118 217 119
14279 3 118 217 296
14280 4 118 217 298
14281 3 118 217 300
14282 3 118 217 215
14283 1 118 217 216
14284 2 118 217 218
14285 3 118 217 219
14286 1 118 217 220
14287 3 119 217 296
14288 3 119 217 298
14289 1 119 217 300
14290 4 119 217 215
14291 3 119 217 216
14292 3 119 217 218
14293 2 119 217 219
14294 1 119 217 220
14295 1 296 217 298
14296 2 296 217 300
14297 1 296 217 215
14298 2 296 217 216
14299 3 296 217 218
14300 3 296 217 219
14301 4 296 217 220
14302 1 298 217 300
14303 1 298 217 215
14304 3 298 217 216
14305 2 298 217 218
14306 1 298 217 219
14307 3 298 217 220
14308 3 300 217 215
14309 4 300 217 216
14310 3 300 217 218
14311 1 300 217 219
14312 2 300 217 220
14313 1 215 217 216
14314 1 215 217 218
14315 2 215 217 219
14316 3 215 217 220
14317 1 216 217 218
14318 3 216 217 219
14319 2 216 217 220
14320 1 218 217 219
14321 1 218 217 220
14322 1 219 217 220
14323 1 215 218 216
14324 1 215 218 217
14325 2 215 218 219
14326 3 215 218 220
14327 2 215 218 235
14328 3 215 218 237
14329 4 215 218 239
14330 1 215 218 316
14331 1 215 218 317
14332 3 215 218 320
14333 3 215 218 337
14334 1 216 218 217
14335 3 216 218 219
14336 2 216 218 220
14337 1 216 218 235
14338 1 216 218 237
14339 3 216 218 239
14340 2 216 218 316
14341 3 216 218 317
14342 4 216 218 320
14343 3 216 218 337
14344 1 217 218 219
14345 1 217 218 220
14346 3 217 218 235
14347 2 217 218 237
14348 3 217 218 239
14349 3 217 218 316
14350 2 217 218 317
14351 3 217 218 320
14352 4 217 218 337
14353 1 219 218 220
14354 4 219 218 235
14355 3 219 218 237
14356 2 219 218 239
14357 3 219 218 316
14358 1 219 218 317
14359 1 219 218 320
14360 3 219 218 337
14361 3 220 218 235
14362 1 220 218 237
14363 1 220 218 239
14364 4 220 218 316
14365 3 220 218 317
14366 2 220 218 320
14367 3 220 218 337
14368 1 235 218 237
14369 2 235 218 239
14370 1 235 218 316
14371 3 235 218 317
14372 3 235 218 320
14373 1 235 218 337
14374 1 237 218 239
14375 3 237 218 316
14376 4 237 218 317
14377 3 237 218 320
14378 2 237 218 337
14379 3 239 218 316
14380 3 239 218 317
14381 1 239 218 320
14382 1 239 218 337
14383 1 316 218 317
14384 2 316 218 320
14385 1 316 218 337
14386 1 317 218 320
14387 2 317 218 337
14388 1 320 218 337
14389 1 298 219 300
14390 2 298 219 282
14391 1 298 219 217
14392 2 298 219 218
14393 3 298 219 220
14394 3 298 219 201
14395 4 298 219 202
14396 1 298 219 400
14397 1 298 219 317
14398 3 298 219 320
14399 3 298 219 301
14400 1 300 219 282
14401 1 300 219 217
14402 3 300 219 218
14403 2 300 219 220
14404 1 300 219 201
14405 3 300 219 202
14406 2 300 219 400
14407 3 300 219 317
14408 4 300 219 320
14409 3 300 219 301
14410 3 282 219 217
14411 4 282 219 218
14412 3 282 219 220
14413 1 282 219 201
14414 2 282 219 202
14415 1 282 219 400
14416 3 282 219 317
14417 3 282 219 320
14418 1 282 219 301
14419 1 217 219 218
14420 1 217 219 220
14421 2 217 219 201
14422 3 217 219 202
14423 3 217 219 400
14424 2 217 219 317
14425 3 217 219 320
14426 4 217 219 301
14427 1 218 219 220
14428 3 218 219 201
14429 2 218 219 202
14430 3 218 219 400
14431 1 218 219 317
14432 1 218 219 320
14433 3 218 219 301
14434 1 220 219 201
14435 1 220 219 202
14436 4 220 219 400
14437 3 220 219 317
14438 2 220 219 320
14439 3 220 219 301
14440 1 201 219 202
14441 3 201 219 400
14442 4 201 219 317
14443 3 201 219 320
14444 2 201 219 301
14445 3 202 219 400
14446 3 202 219 317
14447 1 202 219 320
14448 1 202 219 301
14449 1 400 219 317
14450 2 400 219 320
14451 1 400 219 301
14452 1 317 219 320
14453 2 317 219 301
14454 1 320 219 301
14455 1 118 220 119
14456 2 118 220 102
14457 1 118 220 139
14458 1 118 220 217
14459 2 118 220 218
14460 3 118 220 219
14461 3 118 220 201
14462 4 118 220 202
14463 1 118 220 237
14464 3 118 220 239
14465 3 118 220 221
14466 1 119 220 102
14467 2 119 220 139
14468 1 119 220 217
14469 3 119 220 218
14470 2 119 220 219
14471 1 119 220 201
14472 3 119 220 202
14473 3 119 220 237
14474 4 119 220 239
14475 3 119 220 221
14476 1 102 220 139
14477 3 102 220 217
14478 4 102 220 218
14479 3 102 220 219
14480 1 102 220 201
14481 2 102 220 202
14482 3 102 220 237
14483 3 102 220 239
14484 1 102 220 221
14485 3 139 220 217
14486 3 139 220 218
14487 4 139 220 219
14488 3 139 220 201
14489 3 139 220 202
14490 1 139 220 237
14491 2 139 220 239
14492 1 139 220 221
14493 1 217 220 218
14494 1 217 220 219
14495 2 217 220 201
14496 3 217 220 202
14497 2 217 220 237
14498 3 217 220 239
14499 4 217 220 221
14500 1 218 220 219
14501 3 218 220 201
14502 2 218 220 202
14503 1 218 220 237
14504 1 218 220 239
14505 3 218 220 221
14506 1 219 220 201
14507 1 219 220 202
14508 3 219 220 237
14509 2 219 220 239
14510 3 219 220 221
14511 1 201 220 202
14512 4 201 220 237
14513 3 201 220 239
14514 2 201 220 221
14515 3 202 220 237
14516 1 202 220 239
14517 1 202 220 221
14518 1 237 220 239
14519 2 237 220 221
14520 1 239 220 221
14521 1 102 221 139
14522 2 102 221 122
14523 1 102 221 123
14524 1 102 221 220
14525 2 102 221 202
14526 1 102 221 204
14527 3 102 221 239
14528 3 102 221 240
14529 4 102 221 222
14530 3 102 221 223
14531 3 102 221 224
14532 1 139 221 122
14533 2 139 221 123
14534 1 139 221 220
14535 3 139 221 202
14536 3 139 221 204
14537 2 139 221 239
14538 1 139 221 240
14539 3 139 221 222
14540 4 139 221 223
14541 3 139 221 224
14542 1 122 221 123
14543 3 122 221 220
14544 4 122 221 202
14545 3 122 221 204
14546 3 122 221 239
14547 1 122 221 240
14548 2 122 221 222
14549 3 122 221 223
14550 1 122 221 224
14551 3 123 221 220
14552 3 123 221 202
14553 1 123 221 204
14554 4 123 221 239
14555 3 123 221 240
14556 3 123 221 222
14557 2 123 221 223
14558 1 123 221 224
14559 1 220 221 202
14560 2 220 221 204
14561 1 220 221 239
14562 2 220 221 240
14563 3 220 221 222
14564 3 220 221 223
14565 4 220 221 224
14566 1 202 221 204
14567 1 202 221 239
14568 3 202 221 240
14569 2 202 221 222
14570 1 202 221 223
14571 3 202 221 224
14572 3 204 221 239
14573 4 204 221 240
14574 3 204 221 222
14575 1 204 221 223
14576 2 204 221 224
14577 1 239 221 240
14578 1 239 221 222
14579 2 239 221 223
14580 3 239 221 224
14581 1 240 221 222
14582 3 240 221 223
14583 2 240 221 224
14584 1 222 221 223
14585 1 222 221 224
14586 1 223 221 224
14587 1 239 222 240
14588 1 239 222 221
14589 2 239 222 223
14590 3 239 222 224
14591 2 239 222 259
14592 3 239 222 241
14593 4 239 222 243
14594 1 239 222 340
14595 1 239 222 321
14596 3 239 222 324
14597 3 239 222 341
14598 1 240 222 221
14599 3 240 222 223
14600 2 240 222 224
14601 1 240 222 259
14602 1 240 222 241
14603 3 240 222 243
14604 2 240 222 340
14605 3 240 222 321
14606 4 240 222 324
14607 3 240 222 341
14608 1 221 222 223
14609 1 221 222 224
14610 3 221 222 259
14611 2 221 222 241
14612 3 221 222 243
14613 3 221 222 340
14614 2 221 222 321
14615 3 221 222 324
14616 4 221 222 341
14617 1 223 222 224
14618 4 223 222 259
14619 3 223 222 241
14620 2 223 222 243
14621 3 223 222 340
14622 1 223 222 321
14623 1 223 222 324
14624 3 223 222 341
14625 3 224 222 259
14626 1 224 222 241
14627 1 224 222 243
14628 4 224 222 340
14629 3 224 222 321
14630 2 224 222 324
14631 3 224 222 341
14632 1 259 222 241
14633 2 259 222 243
14634 1 259 222 340
14635 3 259 222 321
14636 3 259 222 324
14637 1 259 222 341
14638 1 241 222 243
14639 3 241 222 340
14640 4 241 222 321
14641 3 241 222 324
14642 2 241 222 341
14643 3 243 222 340
14644 3 243 222 321
14645 1 243 222 324
14646 1 243 222 341
14647 1 340 222 321
14648 2 340 222 324
14649 1 340 222 341
14650 1 321 222 324
14651 2 321 222 341
14652 1 324 222 341
14653 1 202 223 204
14654 2 202 223 206
14655 1 202 223 221
14656 2 202 223 222
14657 3 202 223 224
14658 3 202 223 225
14659 4 202 223 226
14660 1 202 223 304
14661 1 202 223 321
14662 3 202 223 324
14663 3 202 223 325
14664 1 204 223 206
14665 1 204 223 221
14666 3 204 223 222
14667 2 204 223 224
14668 1 204 223 225
14669 3 204 223 226
14670 2 204 223 304
14671 3 204 223 321
14672 4 204 223 324
14673 3 204 223 325
14674 3 206 223 221
14675 4 206 223 222
14676 3 206 223 224
14677 1 206 223 225
14678 2 206 223 226
14679 1 206 223 304
14680 3 206 223 321
14681 3 206 223 324
14682 1 206 223 325
14683 1 221 223 222
14684 1 221 223 224
14685 2 221 223 225
14686 3 221 223 226
14687 3 221 223 304
14688 2 221 223 321
14689 3 221 223 324
14690 4 221 223 325
14691 1 222 223 224
14692 3 222 223 225
14693 2 222 223 226
14694 3 222 223 304
14695 1 222 223 321
14696 1 222 223 324
14697 3 222 223 325
14698 1 224 223 225
14699 1 224 223 226
14700 4 224 223 304
14701 3 224 223 321
14702 2 224 223 324
14703 3 224 223 325
14704 1 225 223 226
14705 3 225 223 304
14706 4 225 223 321
14707 3 225 223 324
14708 2 225 223 325
14709 3 226 223 304
14710 3 226 223 321
14711 1 226 223 324
14712 1 226 223 325
14713 1 304 223 321
14714 2 304 223 324
14715 1 304 223 325
14716 1 321 223 324
14717 2 321 223 325
14718 1 324 223 325
14719 1 122 224 123
14720 2 122 224 126
14721 1 122 224 143
14722 1 122 224 221
14723 2 122 224 222
14724 3 122 224 223
14725 3 122 224 225
14726 4 122 224 226
14727 1 122 224 241
14728 3 122 224 243
14729 3 122 224 245
14730 1 123 224 126
14731 2 123 224 143
14732 1 123 224 221
14733 3 123 224 222
14734 2 123 224 223
14735 1 123 224 225
14736 3 123 224 226
14737 3 123 224 241
14738 4 123 224 243
14739 3 123 224 245
14740 1 126 224 143
14741 3 126 224 221
14742 4 126 224 222
14743 3 126 224 223
14744 1 126 224 225
14745 2 126 224 226
14746 3 126 224 241
14747 3 126 224 243
14748 1 126 224 245
14749 3 143 224 221
14750 3 143 224 222
14751 4 143 224 223
14752 3 143 224 225
14753 3 143 224 226
14754 1 143 224 241
14755 2 143 224 243
14756 1 143 224 245
14757 1 221 224 222
14758 1 221 224 223
14759 2 221 224 225
14760 3 221 224 226
14761 2 221 224 241
14762 3 221 224 243
14763 4 221 224 245
14764 1 222 224 223
14765 3 222 224 225
14766 2 222 224 226
14767 1 222 224 241
14768 1 222 224 243
14769 3 222 224 245
14770 1 223 224 225
14771 1 223 224 226
14772 3 223 224 241
14773 2 223 224 243
14774 3 223 224 245
14775 1 225 224 226
14776 4 225 224 241
14777 3 225 224 243
14778 2 225 224 245
14779 3 226 224 241
14780 1 226 224 243
14781 1 226 224 245
14782 1 241 224 243
14783 2 241 224 245
14784 1 243 224 245
14785 1 106 225 123
14786 2 106 225 126
14787 1 106 225 127
14788 1 106 225 204
14789 2 106 225 206
14790 1 106 225 208
14791 3 106 225 223
14792 3 106 225 224
14793 4 106 225 226
14794 3 106 225 227
14795 3 106 225 228
14796 1 123 225 126
14797 2 123 225 127
14798 1 123 225 204
14799 3 123 225 206
14800 3 123 225 208
14801 2 123 225 223
14802 1 123 225 224
14803 3 123 225 226
14804 4 123 225 227
14805 3 123 225 228
14806 1 126 225 127
14807 3 126 225 204
14808 4 126 225 206
14809 3 126 225 208
14810 3 126 225 223
14811 1 126 225 224
14812 2 126 225 226
14813 3 126 225 227
14814 1 126 225 228
14815 3 127 225 204
14816 3 127 225 206
14817 1 127 225 208
14818 4 127 225 223
14819 3 127 225 224
14820 3 127 225 226
14821 2 127 225 227
14822 1 127 225 228
14823 1 204 225 206
14824 2 204 225 208
14825 1 204 225 223
14826 2 204 225 224
14827 3 204 225 226
14828 3 204 225 227
14829 4 204 225 228
14830 1 206 225 208
14831 1 206 225 223
14832 3 206 225 224
14833 2 206 225 226
14834 1 206 225 227
14835 3 206 225 228
14836 3 208 225 223
14837 4 208 225 224
14838 3 208 225 226
14839 1 208 225 227
14840 2 208 225 228
14841 1 223 225 224
14842 1 223 225 226
14843 2 223 225 227
14844 3 223 225 228
14845 1 224 225 226
14846 3 224 225 227
14847 2 224 225 228
14848 1 226 225 227
14849 1 226 225 228
14850 1 227 225 228
14851 1 223 226 224
14852 1 223 226 225
14853 2 223 226 227
14854 3 223 226 228
14855 2 223 226 243
14856 3 223 226 245
14857 4 223 226 247
14858 1 223 226 324
14859 1 223 226 325
14860 3 223 226 328
14861 3 223 226 345
14862 1 224 226 225
14863 3 224 226 227
14864 2 224 226 228
14865 1 224 226 243
14866 1 224 226 245
14867 3 224 226 247
14868 2 224 226 324
14869 3 224 226 325
14870 4 224 226 328
14871 3 224 226 345
14872 1 225 226 227
14873 1 225 226 228
14874 3 225 226 243
14875 2 225 226 245
14876 3 225 226 247
14877 3 225 226 324
14878 2 225 226 325
14879 3 225 226 328
14880 4 225 226 345
14881 1 227 226 228
14882 4 227 226 243
14883 3 227 226 245
14884 2 227 226 247
14885 3 227 226 324
14886 1 227 226 325
14887 1 227 226 328
14888 3 227 226 345
14889 3 228 226 243
14890 1 228 226 245
14891 1 228 226 247
14892 4 228 226 324
14893 3 228 226 325
14894 2 228 226 328
14895 3 228 226 345
14896 1 243 226 245
14897 2 243 226 247
14898 1 243 226 324
14899 3 243 226 325
14900 3 243 226 328
14901 1 243 226 345
14902 1 245 226 247
14903 3 245 226 324
14904 4 245 226 325
14905 3 245 226 328
14906 2 245 226 345
14907 3 247 226 324
14908 3 247 226 325
14909 1 247 226 328
14910 1 247 226 345
14911 1 324 226 325
14912 2 324 226 328
14913 1 324 226 345
14914 1 325 226 328
14915 2 325 226 345
14916 1 328 226 345
14917 1 206 227 208
14918 2 206 227 210
14919 1 206 227 225
14920 2 206 227 226
14921 3 206 227 228
14922 3 206 227 229
14923 4 206 227 230
14924 1 206 227 308
14925 1 206 227 325
14926 3 206 227 328
14927 3 206 227 329
14928 1 208 227 210
14929 1 208 227 225
14930 3 208 227 226
14931 2 208 227 228
14932 1 208 227 229
14933 3 208 227 230
14934 2 208 227 308
14935 3 208 227 325
14936 4 208 227 328
14937 3 208 227 329
14938 3 210 227 225
14939 4 210 227 226
14940 3 210 227 228
14941 1 210 227 229
14942 2 210 227 230
14943 1 210 227 308
14944 3 210 227 325
14945 3 210 227 328
14946 1 210 227 329
14947 1 225 227 226
14948 1 225 227 228
14949 2 225 227 229
14950 3 225 227 230
14951 3 225 227 308
14952 2 225 227 325
14953 3 225 227 328
14954 4 225 227 329
14955 1 226 227 228
14956 3 226 227 229
14957 2 226 227 230
14958 3 226 227 308
14959 1 226 227 325
14960 1 226 227 328
14961 3 226 227 329
14962 1 228 227 229
14963 1 228 227 230
14964 4 228 227 308
14965 3 228 227 325
14966 2 228 227 328
14967 3 228 227 329
14968 1 229 227 230
14969 3 229 227 308
14970 4 229 227 325
14971 3 229 227 328
14972 2 229 227 329
14973 3 230 227 308
14974 3 230 227 325
14975 1 230 227 328
14976 1 230 227 329
14977 1 308 227 325
14978 2 308 227 328
14979 1 308 227 329
14980 1 325 227 328
14981 2 325 227 329
14982 1 328 227 329
14983 1 126 228 127
14984 2 126 228 130
14985 1 126 228 147
14986 1 126 228 225
14987 2 126 228 226
14988 3 126 228 227
14989 3 126 228 229
14990 4 126 228 230
14991 1 126 228 245
14992 3 126 228 247
14993 3 126 228 249
14994 1 127 228 130
14995 2 127 228 147
14996 1 127 228 225
14997 3 127 228 226
14998 2 127 228 227
14999 1 127 228 229
15000 3 127 228 230
15001 3 127 228 245
15002 4 127 228 247
15003 3 127 228 249
15004 1 130 228 147
15005 3 130 228 225
15006 4 130 228 226
15007 3 130 228 227
15008 1 130 228 229
15009 2 130 228 230
15010 3 130 228 245
15011 3 130 228 247
15012 1 130 228 249
15013 3 147 228 225
15014 3 147 228 226
15015 4 147 228 227
15016 3 147 228 229
15017 3 147 228 230
15018 1 147 228 245
15019 2 147 228 247
15020 1 147 228 249
15021 1 225 228 226
15022 1 225 228 227
15023 2 225 228 229
15024 3 225 228 230
15025 2 225 228 245
15026 3 225 228 247
15027 4 225 228 249
15028 1 226 228 227
15029 3 226 228 229
15030 2 226 228 230
15031 1 226 228 245
15032 1 226 228 247
15033 3 226 228 249
15034 1 227 228 229
15035 1 227 228 230
15036 3 227 228 245
15037 2 227 228 247
15038 3 227 228 249
15039 1 229 228 230
15040 4 229 228 245
15041 3 229 228 247
15042 2 229 228 249
15043 3 230 228 245
15044 1 230 228 247
15045 1 230 228 249
15046 1 245 228 247
15047 2 245 228 249
15048 1 247 228 249
15049 1 110 229 127
15050 2 110 229 130
15051 1 110 229 131
15052 1 110 229 208
15053 2 110 229 210
15054 1 110 229 212
15055 3 110 229 227
15056 3 110 229 228
15057 4 110 229 230
15058 3 110 229 231
15059 3 110 229 232
15060 1 127 229 130
15061 2 127 229 131
15062 1 127 229 208
15063 3 127 229 210
15064 3 127 229 212
15065 2 127 229 227
15066 1 127 229 228
15067 3 127 229 230
15068 4 127 229 231
15069 3 127 229 232
15070 1 130 229 131
15071 3 130 229 208
15072 4 130 229 210
15073 3 130 229 212
15074 3 130 229 227
15075 1 130 229 228
15076 2 130 229 230
15077 3 130 229 231
15078 1 130 229 232
15079 3 131 229 208
15080 3 131 229 210
15081 1 131 229 212
15082 4 131 229 227
15083 3 131 229 228
15084 3 131 229 230
15085 2 131 229 231
15086 1 131 229 232
15087 1 208 229 210
15088 2 208 229 212
15089 1 208 229 227
15090 2 208 229 228
15091 3 208 229 230
15092 3 208 229 231
15093 4 208 229 232
15094 1 210 229 212
15095 1 210 229 227
15096 3 210 229 228
15097 2 210 229 230
15098 1 210 229 231
15099 3 210 229 232
15100 3 212 229 227
15101 4 212 229 228
15102 3 212 229 230
15103 1 212 229 231
15104 2 212 229 232
15105 1 227 229 228
15106 1 227 229 230
15107 2 227 229 231
15108 3 227 229 232
15109 1 228 229 230
15110 3 228 229 231
15111 2 228 229 232
15112 1 230 229 231
15113 1 230 229 232
15114 1 231 229 232
15115 1 227 230 228
15116 1 227 230 229
15117 2 227 230 231
15118 3 227 230 232
15119 2 227 230 247
15120 3 227 230 249
15121 4 227 230 251
15122 1 227 230 328
15123 1 227 230 329
15124 3 227 230 332
15125 3 227 230 349
15126 1 228 230 229
15127 3 228 230 231
15128 2 228 230 232
15129 1 228 230 247
15130 1 228 230 249
15131 3 228 230 251
15132 2 228 230 328
15133 3 228 230 329
15134 4 228 230 332
15135 3 228 230 349
15136 1 229 230 231
15137 1 229 230 232
15138 3 229 230 247
15139 2 229 230 249
15140 3 229 230 251
15141 3 229 230 328
15142 2 229 230 329
15143 3 229 230 332
15144 4 229 230 349
15145 1 231 230 232
15146 4 231 230 247
15147 3 231 230 249
15148 2 231 230 251
15149 3 231 230 328
15150 1 231 230 329
15151 1 231 230 332
15152 3 231 230 349
15153 3 232 230 247
15154 1 232 230 249
15155 1 232 230 251
15156 4 232 230 328
15157 3 232 230 329
15158 2 232 230 332
15159 3 232 230 349
15160 1 247 230 249
15161 2 247 230 251
15162 1 247 230 328
15163 3 247 230 329
15164 3 247 230 332
15165 1 247 230 349
15166 1 249 230 251
15167 3 249 230 328
15168 4 249 230 329
15169 3 249 230 332
15170 2 249 230 349
15171 3 251 230 328
15172 3 251 230 329
15173 1 251 230 332
15174 1 251 230 349
15175 1 328 230 329
15176 2 328 230 332
15177 1 328 230 349
15178 1 329 230 332
15179 2 329 230 349
15180 1 332 230 349
15181 1 210 231 212
15182 2 210 231 214
15183 1 210 231 229
15184 2 210 231 230
15185 3 210 231 232
15186 3 210 231 233
15187 4 210 231 234
15188 1 210 231 312
15189 1 210 231 329
15190 3 210 231 332
15191 3 210 231 333
15192 1 212 231 214
15193 1 212 231 229
15194 3 212 231 230
15195 2 212 231 232
15196 1 212 231 233
15197 3 212 231 234
15198 2 212 231 312
15199 3 212 231 329
15200 4 212 231 332
15201 3 212 231 333
15202 3 214 231 229
15203 4 214 231 230
15204 3 214 231 232
15205 1 214 231 233
15206 2 214 231 234
15207 1 214 231 312
15208 3 214 231 329
15209 3 214 231 332
15210 1 214 231 333
15211 1 229 231 230
15212 1 229 231 232
15213 2 229 231 233
15214 3 229 231 234
15215 3 229 231 312
15216 2 229 231 329
15217 3 229 231 332
15218 4 229 231 333
15219 1 230 231 232
15220 3 230 231 233
15221 2 230 231 234
15222 3 230 231 312
15223 1 230 231 329
15224 1 230 231 332
15225 3 230 231 333
15226 1 232 231 233
15227 1 232 231 234
15228 4 232 231 312
15229 3 232 231 329
15230 2 232 231 332
15231 3 232 231 333
15232 1 233 231 234
15233 3 233 231 312
15234 4 233 231 329
15235 3 233 231 332
15236 2 233 231 333
15237 3 234 231 312
15238 3 234 231 329
15239 1 234 231 332
15240 1 234 231 333
15241 1 312 231 329
15242 2 312 231 332
15243 1 312 231 333
15244 1 329 231 332
15245 2 329 231 333
15246 1 332 231 333
15247 1 130 232 131
15248 2 130 232 134
15249 1 130 232 151
15250 1 130 232 229
15251 2 130 232 230
15252 3 130 232 231
15253 3 130 232 233
15254 4 130 232 234
15255 1 130 232 249
15256 3 130 232 251
15257 3 130 232 253
15258 1 131 232 134
15259 2 131 232 151
15260 1 131 232 229
15261 3 131 232 230
15262 2 131 232 231
15263 1 131 232 233
15264 3 131 232 234
15265 3 131 232 249
15266 4 131 232 251
15267 3 131 232 253
15268 1 134 232 151
15269 3 134 232 229
15270 4 134 232 230
15271 3 134 232 231
15272 1 134 232 233
15273 2 134 232 234
15274 3 134 232 249
15275 3 134 232 251
15276 1 134 232 253
15277 3 151 232 229
15278 3 151 232 230
15279 4 151 232 231
15280 3 151 232 233
15281 3 151 232 234
15282 1 151 232 249
15283 2 151 232 251
15284 1 151 232 253
15285 1 229 232 230
15286 1 229 232 231
15287 2 229 232 233
15288 3 229 232 234
15289 2 229 232 249
15290 3 229 232 251
15291 4 229 232 253
15292 1 230 232 231
15293 3 230 232 233
15294 2 230 232 234
15295 1 230 232 249
15296 1 230 232 251
15297 3 230 232 253
15298 1 231 232 233
15299 1 231 232 234
15300 3 231 232 249
15301 2 231 232 251
15302 3 231 232 253
15303 1 233 232 234
15304 4 233 232 249
15305 3 233 232 251
15306 2 233 232 253
15307 3 234 232 249
15308 1 234 232 251
15309 1 234 232 253
15310 1 249 232 251
15311 2 249 232 253
15312 1 251 232 253
15313 1 114 233 131
15314 2 114 233 134
15315 1 114 233 135
15316 1 114 233 212
15317 2 114 233 214
15318 1 114 233 216
15319 3 114 233 231
15320 3 114 233 232
15321 4 114 233 234
15322 3 114 233 235
15323 3 114 233 236
15324 1 131 233 134
15325 2 131 233 135
15326 1 131 233 212
15327 3 131 233 214
15328 3 131 233 216
15329 2 131 233 231
15330 1 131 233 232
15331 3 131 233 234
15332 4 131 233 235
15333 3 131 233 236
15334 1 134 233 135
15335 3 134 233 212
15336 4 134 233 214
15337 3 134 233 216
15338 3 134 233 231
15339 1 134 233 232
15340 2 134 233 234
15341 3 134 233 235
15342 1 134 233 236
15343 3 135 233 212
15344 3 135 233 214
15345 1 135 233 216
15346 4 135 233 231
15347 3 135 233 232
15348 3 135 233 234
15349 2 135 233 235
15350 1 135 233 236
15351 1 212 233 214
15352 2 212 233 216
15353 1 212 233 231
15354 2 212 233 232
15355 3 212 233 234
15356 3 212 233 235
15357 4 212 233 236
15358 1 214 233 216
15359 1 214 233 231
15360 3 214 233 232
15361 2 214 233 234
15362 1 214 233 235
15363 3 214 233 236
15364 3 216 233 231
15365 4 216 233 232
15366 3 216 233 234
15367 1 216 233 235
15368 2 216 233 236
15369 1 231 233 232
15370 1 231 233 234
15371 2 231 233 235
15372 3 231 233 236
15373 1 232 233 234
15374 3 232 233 235
15375 2 232 233 236
15376 1 234 233 235
15377 1 234 233 236
15378 1 235 233 236
15379 1 231 234 232
15380 1 231 234 233
15381 2 231 234 235
15382 3 231 234 236
15383 2 231 234 251
15384 3 231 234 253
15385 4 231 234 255
15386 1 231 234 332
15387 1 231 234 333
15388 3 231 234 336
15389 3 231 234 353
15390 1 232 234 233
15391 3 232 234 235
15392 2 232 234 236
15393 1 232 234 251
15394 1 232 234 253
15395 3 232 234 255
15396 2 232 234 332
15397 3 232 234 333
15398 4 232 234 336
15399 3 232 234 353
15400 1 233 234 235
15401 1 233 234 236
15402 3 233 234 251
15403 2 233 234 253
15404 3 233 234 255
15405 3 233 234 332
15406 2 233 234 333
15407 3 233 234 336
15408 4 233 234 353
15409 1 235 234 236
15410 4 235 234 251
15411 3 235 234 253
15412 2 235 234 255
15413 3 235 234 332
15414 1 235 234 333
15415 1 235 234 336
15416 3 235 234 353
15417 3 236 234 251
15418 1 236 234 253
15419 1 236 234 255
15420 4 236 234 332
15421 3 236 234 333
15422 2 236 234 336
15423 3 236 234 353
15424 1 251 234 253
15425 2 251 234 255
15426 1 251 234 332
15427 3 251 234 333
15428 3 251 234 336
15429 1 251 234 353
15430 1 253 234 255
15431 3 253 234 332
15432 4 253 234 333
15433 3 253 234 336
15434 2 253 234 353
15435 3 255 234 332
15436 3 255 234 333
15437 1 255 234 336
15438 1 255 234 353
15439 1 332 234 333
15440 2 332 234 336
15441 1 332 234 353
15442 1 333 234 336
15443 2 333 234 353
15444 1 336 234 353
15445 1 214 235 216
15446 2 214 235 218
15447 1 214 235 233
15448 2 214 235 234
15449 3 214 235 236
15450 3 214 235 237
15451 4 214 235 238
15452 1 214 235 316
15453 1 214 235 333
15454 3 214 235 336
15455 3 214 235 337
15456 1 216 235 218
15457 1 216 235 233
15458 3 216 235 234
15459 2 216 235 236
15460 1 216 235 237
15461 3 216 235 238
15462 2 216 235 316
15463 3 216 235 333
15464 4 216 235 336
15465 3 216 235 337
15466 3 218 235 233
15467 4 218 235 234
15468 3 218 235 236
15469 1 218 235 237
15470 2 218 235 238
15471 1 218 235 316
15472 3 218 235 333
15473 3 218 235 336
15474 1 218 235 337
15475 1 233 235 234
15476 1 233 235 236
15477 2 233 235 237
15478 3 233 235 238
15479 3 233 235 316
15480 2 233 235 333
15481 3 233 235 336
15482 4 233 235 337
15483 1 234 235 236
15484 3 234 235 237
15485 2 234 235 238
15486 3 234 235 316
15487 1 234 235 333
15488 1 234 235 336
15489 3 234 235 337
15490 1 236 235 237
15491 1 236 235 238
15492 4 236 235 316
15493 3 236 235 333
15494 2 236 235 336
15495 3 236 235 337
15496 1 237 235 238
15497 3 237 235 316
15498 4 237 235 333
15499 3 237 235 336
15500 2 237 235 337
15501 3 238 235 316
15502 3 238 235 333
15503 1 238 235 336
15504 1 238 235 337
15505 1 316 235 333
15506 2 316 235 336
15507 1 316 235 337
15508 1 333 235 336
15509 2 333 235 337
15510 1 336 235 337
15511 1 134 236 135
15512 2 134 236 138
15513 1 134 236 155
15514 1 134 236 233
15515 2 134 236 234
15516 3 134 236 235
15517 3 134 236 237
15518 4 134 236 238
15519 1 134 236 253
15520 3 134 236 255
15521 3 134 236 257
15522 1 135 236 138
15523 2 135 236 155
15524 1 135 236 233
15525 3 135 236 234
15526 2 135 236 235
15527 1 135 236 237
15528 3 135 236 238
15529 3 135 236 253
15530 4 135 236 255
15531 3 135 236 257
15532 1 138 236 155
15533 3 138 236 233
15534 4 138 236 234
15535 3 138 236 235
15536 1 138 236 237
15537 2 138 236 238
15538 3 138 236 253
15539 3 138 236 255
15540 1 138 236 257
15541 3 155 236 233
15542 3 155 236 234
15543 4 155 236 235
15544 3 155 236 237
15545 3 155 236 238
15546 1 155 236 253
15547 2 155 236 255
15548 1 155 236 257
15549 1 233 236 234
15550 1 233 236 235
15551 2 233 236 237
15552 3 233 236 238
15553 2 233 236 253
15554 3 233 236 255
15555 4 233 236 257
15556 1 234 236 235
15557 3 234 236 237
15558 2 234 236 238
15559 1 234 236 253
15560 1 234 236 255
15561 3 234 236 257
15562 1 235 236 237
15563 1 235 236 238
15564 3 235 236 253
15565 2 235 236 255
15566 3 235 236 257
15567 1 237 236 238
15568 4 237 236 253
15569 3 237 236 255
15570 2 237 236 257
15571 3 238 236 253
15572 1 238 236 255
15573 1 238 236 257
15574 1 253 236 255
15575 2 253 236 257
15576 1 255 236 257
15577 1 118 237 135
15578 2 118 237 138
15579 1 118 237 139
15580 1 118 237 216
15581 2 118 237 218
15582 1 118 237 220
15583 3 118 237 235
15584 3 118 237 236
15585 4 118 237 238
15586 3 118 237 239
15587 3 118 237 240
15588 1 135 237 138
15589 2 135 237 139
15590 1 135 237 216
15591 3 135 237 218
15592 3 135 237 220
15593 2 135 237 235
15594 1 135 237 236
15595 3 135 237 238
15596 4 135 237 239
15597 3 135 237 240
15598 1 138 237 139
15599 3 138 237 216
15600 4 138 237 218
15601 3 138 237 220
15602 3 138 237 235
15603 1 138 237 236
15604 2 138 237 238
15605 3 138 237 239
15606 1 138 237 240
15607 3 139 237 216
15608 3 139 237 218
15609 1 139 237 220
15610 4 139 237 235
15611 3 139 237 236
15612 3 139 237 238
15613 2 139 237 239
15614 1 139 237 240
15615 1 216 237 218
15616 2 216 237 220
15617 1 216 237 235
15618 2 216 237 236
15619 3 216 237 238
15620 3 216 237 239
15621 4 216 237 240
15622 1 218 237 220
15623 1 218 237 235
15624 3 218 237 236
15625 2 218 237 238
15626 1 218 237 239
15627 3 218 237 240
15628 3 220 237 235
15629 4 220 237 236
15630 3 220 237 238
15631 1 220 237 239
15632 2 220 237 240
15633 1 235 237 236
15634 1 235 237 238
15635 2 235 237 239
15636 3 235 237 240
15637 1 236 237 238
15638 3 236 237 239
15639 2 236 237 240
15640 1 238 237 239
15641 1 238 237 240
15642 1 239 237 240
15643 1 235 238 236
15644 1 235 238 237
15645 2 235 238 239
15646 3 235 238 240
15647 2 235 238 255
15648 3 235 238 257
15649 4 235 238 259
15650 1 235 238 336
15651 1 235 238 337
15652 3 235 238 340
15653 3 235 238 357
15654 1 236 238 237
15655 3 236 238 239
15656 2 236 238 240
15657 1 236 238 255
15658 1 236 238 257
15659 3 236 238 259
15660 2 236 238 336
15661 3 236 238 337
15662 4 236 238 340
15663 3 236 238 357
15664 1 237 238 239
15665 1 237 238 240
15666 3 237 238 255
15667 2 237 238 257
15668 3 237 238 259
15669 3 237 238 336
15670 2 237 238 337
15671 3 237 238 340
15672 4 237 238 357
15673 1 239 238 240
15674 4 239 238 255
15675 3 239 238 257
15676 2 239 238 259
15677 3 239 238 336
15678 1 239 238 337
15679 1 239 238 340
15680 3 239 238 357
15681 3 240 238 255
15682 1 240 238 257
15683 1 240 238 259
15684 4 240 238 336
15685 3 240 238 337
15686 2 240 238 340
15687 3 240 238 357
15688 1 255 238 257
15689 2 255 238 259
15690 1 255 238 336
15691 3 255 238 337
15692 3 255 238 340
15693 1 255 238 357
15694 1 257 238 259
15695 3 257 238 336
15696 4 257 238 337
15697 3 257 238 340
15698 2 257 238 357
15699 3 259 238 336
15700 3 259 238 337
15701 1 259 238 340
15702 1 259 238 357
15703 1 336 238 337
15704 2 336 238 340
15705 1 336 238 357
15706 1 337 238 340
15707 2 337 238 357
15708 1 340 238 357
15709 1 218 239 220
15710 2 218 239 202
15711 1 218 239 237
15712 2 218 239 238
15713 3 218 239 240
15714 3 218 239 221
15715 4 218 239 222
15716 1 218 239 320
15717 1 218 239 337
15718 3 218 239 340
15719 3 218 239 321
15720 1 220 239 202
15721 1 220 239 237
15722 3 220 239 238
15723 2 220 239 240
15724 1 220 239 221
15725 3 220 239 222
15726 2 220 239 320
15727 3 220 239 337
15728 4 220 239 340
15729 3 220 239 321
15730 3 202 239 237
15731 4 202 239 238
15732 3 202 239 240
15733 1 202 239 221
15734 2 202 239 222
15735 1 202 239 320
15736 3 202 239 337
15737 3 202 239 340
15738 1 202 239 321
15739 1 237 239 238
15740 1 237 239 240
15741 2 237 239 221
15742 3 237 239 222
15743 3 237 239 320
15744 2 237 239 337
15745 3 237 239 340
15746 4 237 239 321
15747 1 238 239 240
15748 3 238 239 221
15749 2 238 239 222
15750 3 238 239 320
15751 1 238 239 337
15752 1 238 239 340
15753 3 238 239 321
15754 1 240 239 221
15755 1 240 239 222
15756 4 240 239 320
15757 3 240 239 337
15758 2 240 239 340
15759 3 240 239 321
15760 1 221 239 222
15761 3 221 239 320
15762 4 221 239 337
15763 3 221 239 340
15764 2 221 239 321
15765 3 222 239 320
15766 3 222 239 337
15767 1 222 239 340
15768 1 222 239 321
15769 1 320 239 337
15770 2 320 239 340
15771 1 320 239 321
15772 1 337 239 340
15773 2 337 239 321
15774 1 340 239 321
15775 1 138 240 139
15776 2 138 240 122
15777 1 138 240 159
15778 1 138 240 237
15779 2 138 240 238
15780 3 138 240 239
15781 3 138 240 221
15782 4 138 240 222
15783 1 138 240 257
15784 3 138 240 259
15785 3 138 240 241
15786 1 139 240 122
15787 2 139 240 159
15788 1 139 240 237
15789 3 139 240 238
15790 2 139 240 239
15791 1 139 240 221
15792 3 139 240 222
15793 3 139 240 257
15794 4 139 240 259
15795 3 139 240 241
15796 1 122 240 159
15797 3 122 240 237
15798 4 122 240 238
15799 3 122 240 239
15800 1 122 240 221
15801 2 122 240 222
15802 3 122 240 257
15803 3 122 240 259
15804 1 122 240 241
15805 3 159 240 237
15806 3 159 240 238
15807 4 159 240 239
15808 3 159 240 221
15809 3 159 240 222
15810 1 159 240 257
15811 2 159 240 259
15812 1 159 240 241
15813 1 237 240 238
15814 1 237 240 239
15815 2 237 240 221
15816 3 237 240 222
15817 2 237 240 257
15818 3 237 240 259
15819 4 237 240 241
15820 1 238 240 239
15821 3 238 240 221
15822 2 238 240 222
15823 1 238 240 257
15824 1 238 240 259
15825 3 238 240 241
15826 1 239 240 221
15827 1 239 240 222
15828 3 239 240 257
15829 2 239 240 259
15830 3 239 240 241
15831 1 221 240 222
15832 4 221 240 257
15833 3 221 240 259
15834 2 221 240 241
15835 3 222 240 257
15836 1 222 240 259
15837 1 222 240 241
15838 1 257 240 259
15839 2 257 240 241
15840 1 259 240 241
15841 1 122 241 159
15842 2 122 241 142
15843 1 122 241 143
15844 1 122 241 240
15845 2 122 241 222
15846 1 122 241 224
15847 3 122 241 259
15848 3 122 241 260
15849 4 122 241 242
15850 3 122 241 243
15851 3 122 241 244
15852 1 159 241 142
15853 2 159 241 143
15854 1 159 241 240
15855 3 159 241 222
15856 3 159 241 224
15857 2 159 241 259
15858 1 159 241 260
15859 3 159 241 242
15860 4 159 241 243
15861 3 159 241 244
15862 1 142 241 143
15863 3 142 241 240
15864 4 142 241 222
15865 3 142 241 224
15866 3 142 241 259
15867 1 142 241 260
15868 2 142 241 242
15869 3 142 241 243
15870 1 142 241 244
15871 3 143 241 240
15872 3 143 241 222
15873 1 143 241 224
15874 4 143 241 259
15875 3 143 241 260
15876 3 143 241 242
15877 2 143 241 243
15878 1 143 241 244
15879 1 240 241 222
15880 2 240 241 224
15881 1 240 241 259
15882 2 240 241 260
15883 3 240 241 242
15884 3 240 241 243
15885 4 240 241 244
15886 1 222 241 224
15887 1 222 241 259
15888 3 222 241 260
15889 2 222 241 242
15890 1 222 241 243
15891 3 222 241 244
15892 3 224 241 259
15893 4 224 241 260
15894 3 224 241 242
15895 1 224 241 243
15896 2 224 241 244
15897 1 259 241 260
15898 1 259 241 242
15899 2 259 241 243
15900 3 259 241 244
15901 1 260 241 242
15902 3 260 241 243
15903 2 260 241 244
15904 1 242 241 243
15905 1 242 241 244
15906 1 243 241 244
15907 1 259 242 260
15908 1 259 242 241
15909 2 259 242 243
15910 3 259 242 244
15911 2 259 242 279
15912 3 259 242 261
15913 4 259 242 263
15914 1 259 242 360
15915 1 259 242 341
15916 3 259 242 344
15917 3 259 242 361
15918 1 260 242 241
15919 3 260 242 243
15920 2 260 242 244
15921 1 260 242 279
15922 1 260 242 261
15923 3 260 242 263
15924 2 260 242 360
15925 3 260 242 341
15926 4 260 242 344
15927 3 260 242 361
15928 1 241 242 243
15929 1 241 242 244
15930 3 241 242 279
15931 2 241 242 261
15932 3 241 242 263
15933 3 241 242 360
15934 2 241 242 341
15935 3 241 242 344
15936 4 241 242 361
15937 1 243 242 244
15938 4 243 242 279
15939 3 243 242 261
15940 2 243 242 263
15941 3 243 242 360
15942 1 243 242 341
15943 1 243 242 344
15944 3 243 242 361
15945 3 244 242 279
15946 1 244 242 261
15947 1 244 242 263
15948 4 244 242 360
15949 3 244 242 341
15950 2 244 242 344
15951 3 244 242 361
15952 1 279 242 261
15953 2 279 242 263
15954 1 279 242 360
15955 3 279 242 341
15956 3 279 242 344
15957 1 279 242 361
15958 1 261 242 263
15959 3 261 242 360
15960 4 261 242 341
15961 3 261 242 344
15962 2 261 242 361
15963 3 263 242 360
15964 3 263 242 341
15965 1 263 242 344
15966 1 263 242 361
15967 1 360 242 341
15968 2 360 242 344
15969 1 360 242 361
15970 1 341 242 344
15971 2 341 242 361
15972 1 344 242 361
15973 1 222 243 224
15974 2 222 243 226
15975 1 222 243 241
15976 2 222 243 242
15977 3 222 243 244
15978 3 222 243 245
15979 4 222 243 246
15980 1 222 243 324
15981 1 222 243 341
15982 3 222 243 344
15983 3 222 243 345
15984 1 224 243 226
15985 1 224 243 241
15986 3 224 243 242
15987 2 224 243 244
15988 1 224 243 245
15989 3 224 243 246
15990 2 224 243 324
15991 3 224 243 341
15992 4 224 243 344
15993 3 224 243 345
15994 3 226 243 241
15995 4 226 243 242
15996 3 226 243 244
15997 1 226 243 245
15998 2 226 243 246
15999 1 226 243 324
16000 3 226 243 341
16001 3 226 243 344
16002 1 226 243 345
16003 1 241 243 242
16004 1 241 243 244
16005 2 241 243 245
16006 3 241 243 246
16007 3 241 243 324
16008 2 241 243 341
16009 3 241 243 344
16010 4 241 243 345
16011 1 242 243 244
16012 3 242 243 245
16013 2 242 243 246
16014 3 242 243 324
16015 1 242 243 341
16016 1 242 243 344
16017 3 242 243 345
16018 1 244 243 245
16019 1 244 243 246
16020 4 244 243 324
16021 3 244 243 341
16022 2 244 243 344
16023 3 244 243 345
16024 1 245 243 246
16025 3 245 243 324
16026 4 245 243 341
16027 3 245 243 344
16028 2 245 243 345
16029 3 246 243 324
16030 3 246 243 341
16031 1 246 243 344
16032 1 246 243 345
16033 1 324 243 341
16034 2 324 243 344
16035 1 324 243 345
16036 1 341 243 344
16037 2 341 243 345
16038 1 344 243 345
16039 1 142 244 143
16040 2 142 244 146
16041 1 142 244 163
16042 1 142 244 241
16043 2 142 244 242
16044 3 142 244 243
16045 3 142 244 245
16046 4 142 244 246
16047 1 142 244 261
16048 3 142 244 263
16049 3 142 244 265
16050 1 143 244 146
16051 2 143 244 163
16052 1 143 244 241
16053 3 143 244 242
16054 2 143 244 243
16055 1 143 244 245
16056 3 143 244 246
16057 3 143 244 261
16058 4 143 244 263
16059 3 143 244 265
16060 1 146 244 163
16061 3 146 244 241
16062 4 146 244 242
16063 3 146 244 243
16064 1 146 244 245
16065 2 146 244 246
16066 3 146 244 261
16067 3 146 244 263
16068 1 146 244 265
16069 3 163 244 241
16070 3 163 244 242
16071 4 163 244 243
16072 3 163 244 245
16073 3 163 244 246
16074 1 163 244 261
16075 2 163 244 263
16076 1 163 244 265
16077 1 241 244 242
16078 1 241 244 243
16079 2 241 244 245
16080 3 241 244 246
16081 2 241 244 261
16082 3 241 244 263
16083 4 241 244 265
16084 1 242 244 243
16085 3 242 244 245
16086 2 242 244 246
16087 1 242 244 261
16088 1 242 244 263
16089 3 242 244 265
16090 1 243 244 245
16091 1 243 244 246
16092 3 243 244 261
16093 2 243 244 263
16094 3 243 244 265
16095 1 245 244 246
16096 4 245 244 261
16097 3 245 244 263
16098 2 245 244 265
16099 3 246 244 261
16100 1 246 244 263
16101 1 246 244 265
16102 1 261 244 263
16103 2 261 244 265
16104 1 263 244 265
16105 1 126 245 143
16106 2 126 245 146
16107 1 126 245 147
16108 1 126 245 224
16109 2 126 245 226
16110 1 126 245 228
16111 3 126 245 243
16112 3 126 245 244
16113 4 126 245 246
16114 3 126 245 247
16115 3 126 245 248
16116 1 143 245 146
16117 2 143 245 147
16118 1 143 245 224
16119 3 143 245 226
16120 3 143 245 228
16121 2 143 245 243
16122 1 143 245 244
16123 3 143 245 246
16124 4 143 245 247
16125 3 143 245 248
16126 1 146 245 147
16127 3 146 245 224
16128 4 146 245 226
16129 3 146 245 228
16130 3 146 245 243
16131 1 146 245 244
16132 2 146 245 246
16133 3 146 245 247
16134 1 146 245 248
16135 3 147 245 224
16136 3 147 245 226
16137 1 147 245 228
16138 4 147 245 243
16139 3 147 245 244
16140 3 147 245 246
16141 2 147 245 247
16142 1 147 245 248
16143 1 224 245 226
16144 2 224 245 228
16145 1 224 245 243
16146 2 224 245 244
16147 3 224 245 246
16148 3 224 245 247
16149 4 224 245 248
16150 1 226 245 228
16151 1 226 245 243
16152 3 226 245 244
16153 2 226 245 246
16154 1 226 245 247
16155 3 226 245 248
16156 3 228 245 243
16157 4 228 245 244
16158 3 228 245 246
16159 1 228 245 247
16160 2 228 245 248
16161 1 243 245 244
16162 1 243 245 246
16163 2 243 245 247
16164 3 243 245 248
16165 1 244 245 246
16166 3 244 245 247
16167 2 244 245 248
16168 1 246 245 247
16169 1 246 245 248
16170 1 247 245 248
16171 1 243 246 244
16172 1 243 246 245
16173 2 243 246 247
16174 3 243 246 248
16175 2 243 246 263
16176 3 243 246 265
16177 4 243 246 267
16178 1 243 246 344
16179 1 243 246 345
16180 3 243 246 348
16181 3 243 246 365
16182 1 244 246 245
16183 3 244 246 247
16184 2 244 246 248
16185 1 244 246 263
16186 1 244 246 265
16187 3 244 246 267
16188 2 244 246 344
16189 3 244 246 345
16190 4 244 246 348
16191 3 244 246 365
16192 1 245 246 247
16193 1 245 246 248
16194 3 245 246 263
16195 2 245 246 265
16196 3 245 246 267
16197 3 245 246 344
16198 2 245 246 345
16199 3 245 246 348
16200 4 245 246 365
16201 1 247 246 248
16202 4 247 246 263
16203 3 247 246 265
16204 2 247 246 267
16205 3 247 246 344
16206 1 247 246 345
16207 1 247 246 348
16208 3 247 246 365
16209 3 248 246 263
16210 1 248 246 265
16211 1 248 246 267
16212 4 248 246 344
16213 3 248 246 345
16214 2 248 246 348
16215 3 248 246 365
16216 1 263 246 265
16217 2 263 246 267
16218 1 263 246 344
16219 3 263 246 345
16220 3 263 246 348
16221 1 263 246 365
16222 1 265 246 267
16223 3 265 246 344
16224 4 265 246 345
16225 3 265 246 348
16226 2 265 246 365
16227 3 267 246 344
16228 3 267 246 345
16229 1 267 246 348
16230 1 267 246 365
16231 1 344 246 345
16232 2 344 246 348
16233 1 344 246 365
16234 1 345 246 348
16235 2 345 246 365
16236 1 348 246 365
16237 1 226 247 228
16238 2 226 247 230
16239 1 226 247 245
16240 2 226 247 246
16241 3 226 247 248
16242 3 226 247 249
16243 4 226 247 250
16244 1 226 247 328
16245 1 226 247 345
16246 3 226 247 348
16247 3 226 247 349
16248 1 228 247 230
16249 1 228 247 245
16250 3 228 247 246
16251 2 228 247 248
16252 1 228 247 249
16253 3 228 247 250
16254 2 228 247 328
16255 3 228 247 345
16256 4 228 247 348
16257 3 228 247 349
16258 3 230 247 245
16259 4 230 247 246
16260 3 230 247 248
16261 1 230 247 249
16262 2 230 247 250
16263 1 230 247 328
16264 3 230 247 345
16265 3 230 247 348
16266 1 230 247 349
16267 1 245 247 246
16268 1 245 247 248
16269 2 245 247 249
16270 3 245 247 250
16271 3 245 247 328
16272 2 245 247 345
16273 3 245 247 348
16274 4 245 247 349
16275 1 246 247 248
16276 3 246 247 249
16277 2 246 247 250
16278 3 246 247 328
16279 1 246 247 345
16280 1 246 247 348
16281 3 246 247 349
16282 1 248 247 249
16283 1 248 247 250
16284 4 248 247 328
16285 3 248 247 345
16286 2 248 247 348
16287 3 248 247 349
16288 1 249 247 250
16289 3 249 247 328
16290 4 249 247 345
16291 3 249 247 348
16292 2 249 247 349
16293 3 250 247 328
16294 3 250 247 345
16295 1 250 247 348
16296 1 250 247 349
16297 1 328 247 345
16298 2 328 247 348
16299 1 328 247 349
16300 1 345 247 348
16301 2 345 247 349
16302 1 348 247 349
16303 1 146 248 147
16304 2 146 248 150
16305 1 146 248 167
16306 1 146 248 245
16307 2 146 248 246
16308 3 146 248 247
16309 3 146 248 249
16310 4 146 248 250
16311 1 146 248 265
16312 3 146 248 267
16313 3 146 248 269
16314 1 147 248 150
16315 2 147 248 167
16316 1 147 248 245
16317 3 147 248 246
16318 2 147 248 247
16319 1 147 248 249
16320 3 147 248 250
16321 3 147 248 265
16322 4 147 248 267
16323 3 147 248 269
16324 1 150 248 167
16325 3 150 248 245
16326 4 150 248 246
16327 3 150 248 247
16328 1 150 248 249
16329 2 150 248 250
16330 3 150 248 265
16331 3 150 248 267
16332 1 150 248 269
16333 3 167 248 245
16334 3 167 248 246
16335 4 167 248 247
16336 3 167 248 249
16337 3 167 248 250
16338 1 167 248 265
16339 2 167 248 267
16340 1 167 248 269
16341 1 245 248 246
16342 1 245 248 247
16343 2 245 248 249
16344 3 245 248 250
16345 2 245 248 265
16346 3 245 248 267
16347 4 245 248 269
16348 1 246 248 247
16349 3 246 248 249
16350 2 246 248 250
16351 1 246 248 265
16352 1 246 248 267
16353 3 246 248 269
16354 1 247 248 249
16355 1 247 248 250
16356 3 247 248 265
16357 2 247 248 267
16358 3 247 248 269
16359 1 249 248 250
16360 4 249 248 265
16361 3 249 248 267
16362 2 249 248 269
16363 3 250 248 265
16364 1 250 248 267
16365 1 250 248 269
16366 1 265 248 267
16367 2 265 248 269
16368 1 267 248 269
16369 1 130 249 147
16370 2 130 249 150
16371 1 130 249 151
16372 1 130 249 228
16373 2 130 249 230
16374 1 130 249 232
16375 3 130 249 247
16376 3 130 249 248
16377 4 130 249 250
16378 3 130 249 251
16379 3 130 249 252
16380 1 147 249 150
16381 2 147 249 151
16382 1 147 249 228
16383 3 147 249 230
16384 3 147 249 232
16385 2 147 249 247
16386 1 147 249 248
16387 3 147 249 250
16388 4 147 249 251
16389 3 147 249 252
16390 1 150 249 151
16391 3 150 249 228
16392 4 150 249 230
16393 3 150 249 232
16394 3 150 249 247
16395 1 150 249 248
16396 2 150 249 250
16397 3 150 249 251
16398 1 150 249 252
16399 3 151 249 228
16400 3 151 249 230
16401 1 151 249 232
16402 4 151 249 247
16403 3 151 249 248
16404 3 151 249 250
16405 2 151 249 251
16406 1 151 249 252
16407 1 228 249 230
16408 2 228 249 232
16409 1 228 249 247
16410 2 228 249 248
16411 3 228 249 250
16412 3 228 249 251
16413 4 228 249 252
16414 1 230 249 232
16415 1 230 249 247
16416 3 230 249 248
16417 2 230 249 250
16418 1 230 249 251
16419 3 230 249 252
16420 3 232 249 247
16421 4 232 249 248
16422 3 232 249 250
16423 1 232 249 251
16424 2 232 249 252
16425 1 247 249 248
16426 1 247 249 250
16427 2 247 249 251
16428 3 247 249 252
16429 1 248 249 250
16430 3 248 249 251
16431 2 248 249 252
16432 1 250 249 251
16433 1 250 249 252
16434 1 251 249 252
16435 1 247 250 248
16436 1 247 250 249
16437 2 247 250 251
16438 3 247 250 252
16439 2 247 250 267
16440 3 247 250 269
16441 4 247 250 271
16442 1 247 250 348
16443 1 247 250 349
16444 3 247 250 352
16445 3 247 250 369
16446 1 248 250 249
16447 3 248 250 251
16448 2 248 250 252
16449 1 248 250 267
16450 1 248 250 269
16451 3 248 250 271
16452 2 248 250 348
16453 3 248 250 349
16454 4 248 250 352
16455 3 248 250 369
16456 1 249 250 251
16457 1 249 250 252
16458 3 249 250 267
16459 2 249 250 269
16460 3 249 250 271
16461 3 249 250 348
16462 2 249 250 349
16463 3 249 250 352
16464 4 249 250 369
16465 1 251 250 252
16466 4 251 250 267
16467 3 251 250 269
16468 2 251 250 271
16469 3 251 250 348
16470 1 251 250 349
16471 1 251 250 352
16472 3 251 250 369
16473 3 252 250 267
16474 1 252 250 269
16475 1 252 250 271
16476 4 252 250 348
16477 3 252 250 349
16478 2 252 250 352
16479 3 252 250 369
16480 1 267 250 269
16481 2 267 250 271
16482 1 267 250 348
16483 3 267 250 349
16484 3 267 250 352
16485 1 267 250 369
16486 1 269 250 271
16487 3 269 250 348
16488 4 269 250 349
16489 3 269 250 352
16490 2 269 250 369
16491 3 271 250 348
16492 3 271 250 349
16493 1 271 250 352
16494 1 271 250 369
16495 1 348 250 349
16496 2 348 250 352
16497 1 348 250 369
16498 1 349 250 352
16499 2 349 250 369
16500 1 352 250 369
16501 1 230 251 232
16502 2 230 251 234
16503 1 230 251 249
16504 2 230 251 250
16505 3 230 251 252
16506 3 230 251 253
16507 4 230 251 254
16508 1 230 251 332
16509 1 230 251 349
16510 3 230 251 352
16511 3 230 251 353
16512 1 232 251 234
16513 1 232 251 249
16514 3 232 251 250
16515 2 232 251 252
16516 1 232 251 253
16517 3 232 251 254
16518 2 232 251 332
16519 3 232 251 349
16520 4 232 251 352
16521 3 232 251 353
16522 3 234 251 249
16523 4 234 251 250
16524 3 234 251 252
16525 1 234 251 253
16526 2 234 251 254
16527 1 234 251 332
16528 3 234 251 349
16529 3 234 251 352
16530 1 234 251 353
16531 1 249 251 250
16532 1 249 251 252
16533 2 249 251 253
16534 3 249 251 254
16535 3 249 251 332
16536 2 249 251 349
16537 3 249 251 352
16538 4 249 251 353
16539 1 250 251 252
16540 3 250 251 253
16541 2 250 251 254
16542 3 250 251 332
16543 1 250 251 349
16544 1 250 251 352
16545 3 250 251 353
16546 1 252 251 253
16547 1 252 251 254
16548 4 252 251 332
16549 3 252 251 349
16550 2 252 251 352
16551 3 252 251 353
16552 1 253 251 254
16553 3 253 251 332
16554 4 253 251 349
16555 3 253 251 352
16556 2 253 251 353
16557 3 254 251 332
16558 3 254 251 349
16559 1 254 251 352
16560 1 254 251 353
16561 1 332 251 349
16562 2 332 251 352
16563 1 332 251 353
16564 1 349 251 352
16565 2 349 251 353
16566 1 352 251 353
16567 1 150 252 151
16568 2 150 252 154
16569 1 150 252 171
16570 1 150 252 249
16571 2 150 252 250
16572 3 150 252 251
16573 3 150 252 253
16574 4 150 252 254
16575 1 150 252 269
16576 3 150 252 271
16577 3 150 252 273
16578 1 151 252 154
16579 2 151 252 171
16580 1 151 252 249
16581 3 151 252 250
16582 2 151 252 251
16583 1 151 252 253
16584 3 151 252 254
16585 3 151 252 269
16586 4 151 252 271
16587 3 151 252 273
16588 1 154 252 171
16589 3 154 252 249
16590 4 154 252 250
16591 3 154 252 251
16592 1 154 252 253
16593 2 154 252 254
16594 3 154 252 269
16595 3 154 252 271
16596 1 154 252 273
16597 3 171 252 249
16598 3 171 252 250
16599 4 171 252 251
16600 3 171 252 253
16601 3 171 252 254
16602 1 171 252 269
16603 2 171 252 271
16604 1 171 252 273
16605 1 249 252 250
16606 1 249 252 251
16607 2 249 252 253
16608 3 249 252 254
16609 2 249 252 269
16610 3 249 252 271
16611 4 249 252 273
16612 1 250 252 251
16613 3 250 252 253
16614 2 250 252 254
16615 1 250 252 269
16616 1 250 252 271
16617 3 250 252 273
16618 1 251 252 253
16619 1 251 252 254
16620 3 251 252 269
16621 2 251 252 271
16622 3 251 252 273
16623 1 253 252 254
16624 4 253 252 269
16625 3 253 252 271
16626 2 253 252 273
16627 3 254 252 269
16628 1 254 252 271
16629 1 254 252 273
16630 1 269 252 271
16631 2 269 252 273
16632 1 271 252 273
16633 1 134 253 151
16634 2 134 253 154
16635 1 134 253 155
16636 1 134 253 232
16637 2 134 253 234
16638 1 134 253 236
16639 3 134 253 251
16640 3 134 253 252
16641 4 134 253 254
16642 3 134 253 255
16643 3 134 253 256
16644 1 151 253 154
16645 2 151 253 155
16646 1 151 253 232
16647 3 151 253 234
16648 3 151 253 236
16649 2 151 253 251
16650 1 151 253 252
16651 3 151 253 254
16652 4 151 253 255
16653 3 151 253 256
16654 1 154 253 155
16655 3 154 253 232
16656 4 154 253 234
16657 3 154 253 236
16658 3 154 253 251
16659 1 154 253 252
16660 2 154 253 254
16661 3 154 253 255
16662 1 154 253 256
16663 3 155 253 232
16664 3 155 253 234
16665 1 155 253 236
16666 4 155 253 251
16667 3 155 253 252
16668 3 155 253 254
16669 2 155 253 255
16670 1 155 253 256
16671 1 232 253 234
16672 2 232 253 236
16673 1 232 253 251
16674 2 232 253 252
16675 3 232 253 254
16676 3 232 253 255
16677 4 232 253 256
16678 1 234 253 236
16679 1 234 253 251
16680 3 234 253 252
16681 2 234 253 254
16682 1 234 253 255
16683 3 234 253 256
16684 3 236 253 251
16685 4 236 253 252
16686 3 236 253 254
16687 1 236 253 255
16688 2 236 253 256
16689 1 251 253 252
16690 1 251 253 254
16691 2 251 253 255
16692 3 251 253 256
16693 1 252 253 254
16694 3 252 253 255
16695 2 252 253 256
16696 1 254 253 255
16697 1 254 253 256
16698 1 255 253 256
16699 1 251 254 252
16700 1 251 254 253
16701 2 251 254 255
16702 3 251 254 256
16703 2 251 254 271
16704 3 251 254 273
16705 4 251 254 275
16706 1 251 254 352
16707 1 251 254 353
16708 3 251 254 356
16709 3 251 254 373
16710 1 252 254 253
16711 3 252 254 255
16712 2 252 254 256
16713 1 252 254 271
16714 1 252 254 273
16715 3 252 254 275
16716 2 252 254 352
16717 3 252 254 353
16718 4 252 254 356
16719 3 252 254 373
16720 1 253 254 255
16721 1 253 254 256
16722 3 253 254 271
16723 2 253 254 273
16724 3 253 254 275
16725 3 253 254 352
16726 2 253 254 353
16727 3 253 254 356
16728 4 253 254 373
16729 1 255 254 256
16730 4 255 254 271
16731 3 255 254 273
16732 2 255 254 275
16733 3 255 254 352
16734 1 255 254 353
16735 1 255 254 356
16736 3 255 254 373
16737 3 256 254 271
16738 1 256 254 273
16739 1 256 254 275
16740 4 256 254 352
16741 3 256 254 353
16742 2 256 254 356
16743 3 256 254 373
16744 1 271 254 273
16745 2 271 254 275
16746 1 271 254 352
16747 3 271 254 353
16748 3 271 254 356
16749 1 271 254 373
16750 1 273 254 275
16751 3 273 254 352
16752 4 273 254 353
16753 3 273 254 356
16754 2 273 254 373
16755 3 275 254 352
16756 3 275 254 353
16757 1 275 254 356
16758 1 275 254 373
16759 1 352 254 353
16760 2 352 254 356
16761 1 352 254 373
16762 1 353 254 356
16763 2 353 254 373
16764 1 356 254 373
16765 1 234 255 236
16766 2 234 255 238
16767 1 234 255 253
16768 2 234 255 254
16769 3 234 255 256
16770 3 234 255 257
16771 4 234 255 258
16772 1 234 255 336
16773 1 234 255 353
16774 3 234 255 356
16775 3 234 255 357
16776 1 236 255 238
16777 1 236 255 253
16778 3 236 255 254
16779 2 236 255 256
16780 1 236 255 257
16781 3 236 255 258
16782 2 236 255 336
16783 3 236 255 353
16784 4 236 255 356
16785 3 236 255 357
16786 3 238 255 253
16787 4 238 255 254
16788 3 238 255 256
16789 1 238 255 257
16790 2 238 255 258
16791 1 238 255 336
16792 3 238 255 353
16793 3 238 255 356
16794 1 238 255 357
16795 1 253 255 254
16796 1 253 255 256
16797 2 253 255 257
16798 3 253 255 258
16799 3 253 255 336
16800 2 253 255 353
16801 3 253 255 356
16802 4 253 255 357
16803 1 254 255 256
16804 3 254 255 257
16805 2 254 255 258
16806 3 254 255 336
16807 1 254 255 353
16808 1 254 255 356
16809 3 254 255 357
16810 1 256 255 257
16811 1 256 255 258
16812 4 256 255 336
16813 3 256 255 353
16814 2 256 255 356
16815 3 256 255 357
16816 1 257 255 258
16817 3 257 255 336
16818 4 257 255 353
16819 3 257 255 356
16820 2 257 255 357
16821 3 258 255 336
16822 3 258 255 353
16823 1 258 255 356
16824 1 258 255 357
16825 1 336 255 353
16826 2 336 255 356
16827 1 336 255 357
16828 1 353 255 356
16829 2 353 255 357
16830 1 356 255 357
16831 1 154 256 155
16832 2 154 256 158
16833 1 154 256 175
16834 1 154 256 253
16835 2 154 256 254
16836 3 154 256 255
16837 3 154 256 257
16838 4 154 256 258
16839 1 154 256 273
16840 3 154 256 275
16841 3 154 256 277
16842 1 155 256 158
16843 2 155 256 175
16844 1 155 256 253
16845 3 155 256 254
16846 2 155 256 255
16847 1 155 256 257
16848 3 155 256 258
16849 3 155 256 273
16850 4 155 256 275
16851 3 155 256 277
16852 1 158 256 175
16853 3 158 256 253
16854 4 158 256 254
16855 3 158 256 255
16856 1 158 256 257
16857 2 158 256 258
16858 3 158 256 273
16859 3 158 256 275
16860 1 158 256 277
16861 3 175 256 253
16862 3 175 256 254
16863 4 175 256 255
16864 3 175 256 257
16865 3 175 256 258
16866 1 175 256 273
16867 2 175 256 275
16868 1 175 256 277
16869 1 253 256 254
16870 1 253 256 255
16871 2 253 256 257
16872 3 253 256 258
16873 2 253 256 273
16874 3 253 256 275
16875 4 253 256 277
16876 1 254 256 255
16877 3 254 256 257
16878 2 254 256 258
16879 1 254 256 273
16880 1 254 256 275
16881 3 254 256 277
16882 1 255 256 257
16883 1 255 256 258
16884 3 255 256 273
16885 2 255 256 275
16886 3 255 256 277
16887 1 257 256 258
16888 4 257 256 273
16889 3 257 256 275
16890 2 257 256 277
16891 3 258 256 273
16892 1 258 256 275
16893 1 258 256 277
16894 1 273 256 275
16895 2 273 256 277
16896 1 275 256 277
16897 1 138 257 155
16898 2 138 257 158
16899 1 138 257 159
16900 1 138 257 236
16901 2 138 257 238
16902 1 138 257 240
16903 3 138 257 255
16904 3 138 257 256
16905 4 138 257 258
16906 3 138 257 259
16907 3 138 257 260
16908 1 155 257 158
16909 2 155 257 159
16910 1 155 257 236
16911 3 155 257 238
16912 3 155 257 240
16913 2 155 257 255
16914 1 155 257 256
16915 3 155 257 258
16916 4 155 257 259
16917 3 155 257 260
16918 1 158 257 159
16919 3 158 257 236
16920 4 158 257 238
16921 3 158 257 240
16922 3 158 257 255
16923 1 158 257 256
16924 2 158 257 258
16925 3 158 257 259
16926 1 158 257 260
16927 3 159 257 236
16928 3 159 257 238
16929 1 159 257 240
16930 4 159 257 255
16931 3 159 257 256
16932 3 159 257 258
16933 2 159 257 259
16934 1 159 257 260
16935 1 236 257 238
16936 2 236 257 240
16937 1 236 257 255
16938 2 236 257 256
16939 3 236 257 258
16940 3 236 257 259
16941 4 236 257 260
16942 1 238 257 240
16943 1 238 257 255
16944 3 238 257 256
16945 2 238 257 258
16946 1 238 257 259
16947 3 238 257 260
16948 3 240 257 255
16949 4 240 257 256
16950 3 240 257 258
16951 1 240 257 259
16952 2 240 257 260
16953 1 255 257 256
16954 1 255 257 258
16955 2 255 257 259
16956 3 255 257 260
16957 1 256 257 258
16958 3 256 257 259
16959 2 256 257 260
16960 1 258 257 259
16961 1 258 257 260
16962 1 259 257 260
16963 1 255 258 256
16964 1 255 258 257
16965 2 255 258 259
16966 3 255 258 260
16967 2 255 258 275
16968 3 255 258 277
16969 4 255 258 279
16970 1 255 258 356
16971 1 255 258 357
16972 3 255 258 360
16973 3 255 258 377
16974 1 256 258 257
16975 3 256 258 259
16976 2 256 258 260
16977 1 256 258 275
16978 1 256 258 277
16979 3 256 258 279
16980 2 256 258 356
16981 3 256 258 357
16982 4 256 258 360
16983 3 256 258 377
16984 1 257 258 259
16985 1 257 258 260
16986 3 257 258 275
16987 2 257 258 277
16988 3 257 258 279
16989 3 257 258 356
16990 2 257 258 357
16991 3 257 258 360
16992 4 257 258 377
16993 1 259 258 260
16994 4 259 258 275
16995 3 259 258 277
16996 2 259 258 279
16997 3 259 258 356
16998 1 259 258 357
16999 1 259 258 360
17000 3 259 258 377
17001 3 260 258 275
17002 1 260 258 277
17003 1 260 258 279
17004 4 260 258 356
17005 3 260 258 357
17006 2 260 258 360
17007 3 260 258 377
17008 1 275 258 277
17009 2 275 258 279
17010 1 275 258 356
17011 3 275 258 357
17012 3 275 258 360
17013 1 275 258 377
17014 1 277 258 279
17015 3 277 258 356
17016 4 277 258 357
17017 3 277 258 360
17018 2 277 258 377
17019 3 279 258 356
17020 3 279 258 357
17021 1 279 258 360
17022 1 279 258 377
17023 1 356 258 357
17024 2 356 258 360
17025 1 356 258 377
17026 1 357 258 360
17027 2 357 258 377
17028 1 360 258 377
17029 1 238 259 240
17030 2 238 259 222
17031 1 238 259 257
17032 2 238 259 258
17033 3 238 259 260
17034 3 238 259 241
17035 4 238 259 242
17036 1 238 259 340
17037 1 238 259 357
17038 3 238 259 360
17039 3 238 259 341
17040 1 240 259 222
17041 1 240 259 257
17042 3 240 259 258
17043 2 240 259 260
17044 1 240 259 241
17045 3 240 259 242
17046 2 240 259 340
17047 3 240 259 357
17048 4 240 259 360
17049 3 240 259 341
17050 3 222 259 257
17051 4 222 259 258
17052 3 222 259 260
17053 1 222 259 241
17054 2 222 259 242
17055 1 222 259 340
17056 3 222 259 357
17057 3 222 259 360
17058 1 222 259 341
17059 1 257 259 258
17060 1 257 259 260
17061 2 257 259 241
17062 3 257 259 242
17063 3 257 259 340
17064 2 257 259 357
17065 3 257 259 360
17066 4 257 259 341
17067 1 258 259 260
17068 3 258 259 241
17069 2 258 259 242
17070 3 258 259 340
17071 1 258 259 357
17072 1 258 259 360
17073 3 258 259 341
17074 1 260 259 241
17075 1 260 259 242
17076 4 260 259 340
17077 3 260 259 357
17078 2 260 259 360
17079 3 260 259 341
17080 1 241 259 242
17081 3 241 259 340
17082 4 241 259 357
17083 3 241 259 360
17084 2 241 259 341
17085 3 242 259 340
17086 3 242 259 357
17087 1 242 259 360
17088 1 242 259 341
17089 1 340 259 357
17090 2 340 259 360
17091 1 340 259 341
17092 1 357 259 360
17093 2 357 259 341
17094 1 360 259 341
17095 1 158 260 159
17096 2 158 260 142
17097 1 158 260 179
17098 1 158 260 257
17099 2 158 260 258
17100 3 158 260 259
17101 3 158 260 241
17102 4 158 260 242
17103 1 158 260 277
17104 3 158 260 279
17105 3 158 260 261
17106 1 159 260 142
17107 2 159 260 179
17108 1 159 260 257
17109 3 159 260 258
17110 2 159 260 259
17111 1 159 260 241
17112 3 159 260 242
17113 3 159 260 277
17114 4 159 260 279
17115 3 159 260 261
17116 1 142 260 179
17117 3 142 260 257
17118 4 142 260 258
17119 3 142 260 259
17120 1 142 260 241
17121 2 142 260 242
17122 3 142 260 277
17123 3 142 260 279
17124 1 142 260 261
17125 3 179 260 257
17126 3 179 260 258
17127 4 179 260 259
17128 3 179 260 241
17129 3 179 260 242
17130 1 179 260 277
17131 2 179 260 279
17132 1 179 260 261
17133 1 257 260 258
17134 1 257 260 259
17135 2 257 260 241
17136 3 257 260 242
17137 2 257 260 277
17138 3 257 260 279
17139 4 257 260 261
17140 1 258 260 259
17141 3 258 260 241
17142 2 258 260 242
17143 1 258 260 277
17144 1 258 260 279
17145 3 258 260 261
17146 1 259 260 241
17147 1 259 260 242
17148 3 259 260 277
17149 2 259 260 279
17150 3 259 260 261
17151 1 241 260 242
17152 4 241 260 277
17153 3 241 260 279
17154 2 241 260 261
17155 3 242 260 277
17156 1 242 260 279
17157 1 242 260 261
17158 1 277 260 279
17159 2 277 260 261
17160 1 279 260 261
17161 1 142 261 179
17162 2 142 261 162
17163 1 142 261 163
17164 1 142 261 260
17165 2 142 261 242
17166 1 142 261 244
17167 3 142 261 279
17168 3 142 261 280
17169 4 142 261 262
17170 3 142 261 263
17171 3 142 261 264
17172 1 179 261 162
17173 2 179 261 163
17174 1 179 261 260
17175 3 179 261 242
17176 3 179 261 244
17177 2 179 261 279
17178 1 179 261 280
17179 3 179 261 262
17180 4 179 261 263
17181 3 179 261 264
17182 1 162 261 163
17183 3 162 261 260
17184 4 162 261 242
17185 3 162 261 244
17186 3 162 261 279
17187 1 162 261 280
17188 2 162 261 262
17189 3 162 261 263
17190 1 162 261 264
17191 3 163 261 260
17192 3 163 261 242
17193 1 163 261 244
17194 4 163 261 279
17195 3 163 261 280
17196 3 163 261 262
17197 2 163 261 263
17198 1 163 261 264
17199 1 260 261 242
17200 2 260 261 244
17201 1 260 261 279
17202 2 260 261 280
17203 3 260 261 262
17204 3 260 261 263
17205 4 260 261 264
17206 1 242 261 244
17207 1 242 261 279
17208 3 242 261 280
17209 2 242 261 262
17210 1 242 261 263
17211 3 242 261 264
17212 3 244 261 279
17213 4 244 261 280
17214 3 244 261 262
17215 1 244 261 263
17216 2 244 261 264
17217 1 279 261 280
17218 1 279 261 262
17219 2 279 261 263
17220 3 279 261 264
17221 1 280 261 262
17222 3 280 261 263
17223 2 280 261 264
17224 1 262 261 263
17225 1 262 261 264
17226 1 263 261 264
17227 1 279 262 280
17228 1 279 262 261
17229 2 279 262 263
17230 3 279 262 264
17231 2 279 262 299
17232 3 279 262 281
17233 4 279 262 283
17234 1 279 262 380
17235 1 279 262 361
17236 3 279 262 364
17237 3 279 262 381
17238 1 280 262 261
17239 3 280 262 263
17240 2 280 262 264
17241 1 280 262 299
17242 1 280 262 281
17243 3 280 262 283
17244 2 280 262 380
17245 3 280 262 361
17246 4 280 262 364
17247 3 280 262 381
17248 1 261 262 263
17249 1 261 262 264
17250 3 261 262 299
17251 2 261 262 281
17252 3 261 262 283
17253 3 261 262 380
17254 2 261 262 361
17255 3 261 262 364
17256 4 261 262 381
17257 1 263 262 264
17258 4 263 262 299
17259 3 263 262 281
17260 2 263 262 283
17261 3 263 262 380
17262 1 263 262 361
17263 1 263 262 364
17264 3 263 262 381
17265 3 264 262 299
17266 1 264 262 281
17267 1 264 262 283
17268 4 264 262 380
17269 3 264 262 361
17270 2 264 262 364
17271 3 264 262 381
17272 1 299 262 281
17273 2 299 262 283
17274 1 299 262 380
17275 3 299 262 361
17276 3 299 262 364
17277 1 299 262 381
17278 1 281 262 283
17279 3 281 262 380
17280 4 281 262 361
17281 3 281 262 364
17282 2 281 262 381
17283 3 283 262 380
17284 3 283 262 361
17285 1 283 262 364
17286 1 283 262 381
17287 1 380 262 361
17288 2 380 262 364
17289 1 380 262 381
17290 1 361 262 364
17291 2 361 262 381
17292 1 364 262 381
17293 1 242 263 244
17294 2 242 263 246
17295 1 242 263 261
17296 2 242 263 262
17297 3 242 263 264
17298 3 242 263 265
17299 4 242 263 266
17300 1 242 263 344
17301 1 242 263 361
17302 3 242 263 364
17303 3 242 263 365
17304 1 244 263 246
17305 1 244 263 261
17306 3 244 263 262
17307 2 244 263 264
17308 1 244 263 265
17309 3 244 263 266
17310 2 244 263 344
17311 3 244 263 361
17312 4 244 263 364
17313 3 244 263 365
17314 3 246 263 261
17315 4 246 263 262
17316 3 246 263 264
17317 1 246 263 265
17318 2 246 263 266
17319 1 246 263 344
17320 3 246 263 361
17321 3 246 263 364
17322 1 246 263 365
17323 1 261 263 262
17324 1 261 263 264
17325 2 261 263 265
17326 3 261 263 266
17327 3 261 263 344
17328 2 261 263 361
17329 3 261 263 364
17330 4 261 263 365
17331 1 262 263 264
17332 3 262 263 265
17333 2 262 263 266
17334 3 262 263 344
17335 1 262 263 361
17336 1 262 263 364
17337 3 262 263 365
17338 1 264 263 265
17339 1 264 263 266
17340 4 264 263 344
17341 3 264 263 361
17342 2 264 263 364
17343 3 264 263 365
17344 1 265 263 266
17345 3 265 263 344
17346 4 265 263 361
17347 3 265 263 364
17348 2 265 263 365
17349 3 266 263 344
17350 3 266 263 361
17351 1 266 263 364
17352 1 266 263 365
17353 1 344 263 361
17354 2 344 263 364
17355 1 344 263 365
17356 1 361 263 364
17357 2 361 263 365
17358 1 364 263 365
17359 1 162 264 163
17360 2 162 264 166
17361 1 162 264 183
17362 1 162 264 261
17363 2 162 264 262
17364 3 162 264 263
17365 3 162 264 265
17366 4 162 264 266
17367 1 162 264 281
17368 3 162 264 283
17369 3 162 264 285
17370 1 163 264 166
17371 2 163 264 183
17372 1 163 264 261
17373 3 163 264 262
17374 2 163 264 263
17375 1 163 264 265
17376 3 163 264 266
17377 3 163 264 281
17378 4 163 264 283
17379 3 163 264 285
17380 1 166 264 183
17381 3 166 264 261
17382 4 166 264 262
17383 3 166 264 263
17384 1 166 264 265
17385 2 166 264 266
17386 3 166 264 281
17387 3 166 264 283
17388 1 166 264 285
17389 3 183 264 261
17390 3 183 264 262
17391 4 183 264 263
17392 3 183 264 265
17393 3 183 264 266
17394 1 183 264 281
17395 2 183 264 283
17396 1 183 264 285
17397 1 261 264 262
17398 1 261 264 263
17399 2 261 264 265
17400 3 261 264 266
17401 2 261 264 281
17402 3 261 264 283
17403 4 261 264 285
17404 1 262 264 263
17405 3 262 264 265
17406 2 262 264 266
17407 1 262 264 281
17408 1 262 264 283
17409 3 262 264 285
17410 1 263 264 265
17411 1 263 264 266
17412 3 263 264 281
17413 2 263 264 283
17414 3 263 264 285
17415 1 265 264 266
17416 4 265 264 281
17417 3 265 264 283
17418 2 265 264 285
17419 3 266 264 281
17420 1 266 264 283
17421 1 266 264 285
17422 1 281 264 283
17423 2 281 264 285
17424 1 283 264 285
17425 1 146 265 163
17426 2 146 265 166
17427 1 146 265 167
17428 1 146 265 244
17429 2 146 265 246
17430 1 146 265 248
17431 3 146 265 263
17432 3 146 265 264
17433 4 146 265 266
17434 3 146 265 267
17435 3 146 265 268
17436 1 163 265 166
17437 2 163 265 167
17438 1 163 265 244
17439 3 163 265 246
17440 3 163 265 248
17441 2 163 265 263
17442 1 163 265 264
17443 3 163 265 266
17444 4 163 265 267
17445 3 163 265 268
17446 1 166 265 167
17447 3 166 265 244
17448 4 166 265 246
17449 3 166 265 248
17450 3 166 265 263
17451 1 166 265 264
17452 2 166 265 266
17453 3 166 265 267
17454 1 166 265 268
17455 3 167 265 244
17456 3 167 265 246
17457 1 167 265 248
17458 4 167 265 263
17459 3 167 265 264
17460 3 167 265 266
17461 2 167 265 267
17462 1 167 265 268
17463 1 244 265 246
17464 2 244 265 248
17465 1 244 265 263
17466 2 244 265 264
17467 3 244 265 266
17468 3 244 265 267
17469 4 244 265 268
17470 1 246 265 248
17471 1 246 265 263
17472 3 246 265 264
17473 2 246 265 266
17474 1 246 265 267
17475 3 246 265 268
17476 3 248 265 263
17477 4 248 265 264
17478 3 248 265 266
17479 1 248 265 267
17480 2 248 265 268
17481 1 263 265 264
17482 1 263 265 266
17483 2 263 265 267
17484 3 263 265 268
17485 1 264 265 266
17486 3 264 265 267
17487 2 264 265 268
17488 1 266 265 267
17489 1 266 265 268
17490 1 267 265 268
17491 1 263 266 264
17492 1 263 266 265
17493 2 263 266 267
17494 3 263 266 268
17495 2 263 266 283
17496 3 263 266 285
17497 4 263 266 287
17498 1 263 266 364
17499 1 263 266 365
17500 3 263 266 368
17501 3 263 266 385
17502 1 264 266 265
17503 3 264 266 267
17504 2 264 266 268
17505 1 264 266 283
17506 1 264 266 285
17507 3 264 266 287
17508 2 264 266 364
17509 3 264 266 365
17510 4 264 266 368
17511 3 264 266 385
17512 1 265 266 267
17513 1 265 266 268
17514 3 265 266 283
17515 2 265 266 285
17516 3 265 266 287
17517 3 265 266 364
17518 2 265 266 365
17519 3 265 266 368
17520 4 265 266 385
17521 1 267 266 268
17522 4 267 266 283
17523 3 267 266 285
17524 2 267 266 287
17525 3 267 266 364
17526 1 267 266 365
17527 1 267 266 368
17528 3 267 266 385
17529 3 268 266 283
17530 1 268 266 285
17531 1 268 266 287
17532 4 268 266 364
17533 3 268 266 365
17534 2 268 266 368
17535 3 268 266 385
17536 1 283 266 285
17537 2 283 266 287
17538 1 283 266 364
17539 3 283 266 365
17540 3 283 266 368
17541 1 283 266 385
17542 1 285 266 287
17543 3 285 266 364
17544 4 285 266 365
17545 3 285 266 368
17546 2 285 266 385
17547 3 287 266 364
17548 3 287 266 365
17549 1 287 266 368
17550 1 287 266 385
17551 1 364 266 365
17552 2 364 266 368
17553 1 364 266 385
17554 1 365 266 368
17555 2 365 266 385
17556 1 368 266 385
17557 1 246 267 248
17558 2 246 267 250
17559 1 246 267 265
17560 2 246 267 266
17561 3 246 267 268
17562 3 246 267 269
17563 4 246 267 270
17564 1 246 267 348
17565 1 246 267 365
17566 3 246 267 368
17567 3 246 267 369
17568 1 248 267 250
17569 1 248 267 265
17570 3 248 267 266
17571 2 248 267 268
17572 1 248 267 269
17573 3 248 267 270
17574 2 248 267 348
17575 3 248 267 365
17576 4 248 267 368
17577 3 248 267 369
17578 3 250 267 265
17579 4 250 267 266
17580 3 250 267 268
17581 1 250 267 269
17582 2 250 267 270
17583 1 250 267 348
17584 3 250 267 365
17585 3 250 267 368
17586 1 250 267 369
17587 1 265 267 266
17588 1 265 267 268
17589 2 265 267 269
17590 3 265 267 270
17591 3 265 267 348
17592 2 265 267 365
17593 3 265 267 368
17594 4 265 267 369
17595 1 266 267 268
17596 3 266 267 269
17597 2 266 267 270
17598 3 266 267 348
17599 1 266 267 365
17600 1 266 267 368
17601 3 266 267 369
17602 1 268 267 269
17603 1 268 267 270
17604 4 268 267 348
17605 3 268 267 365
17606 2 268 267 368
17607 3 268 267 369
17608 1 269 267 270
17609 3 269 267 348
17610 4 269 267 365
17611 3 269 267 368
17612 2 269 267 369
17613 3 270 267 348
17614 3 270 267 365
17615 1 270 267 368
17616 1 270 267 369
17617 1 348 267 365
17618 2 348 267 368
17619 1 348 267 369
17620 1 365 267 368
17621 2 365 267 369
17622 1 368 267 369
17623 1 166 268 167
17624 2 166 268 170
17625 1 166 268 187
17626 1 166 268 265
17627 2 166 268 266
17628 3 166 268 267
17629 3 166 268 269
17630 4 166 268 270
17631 1 166 268 285
17632 3 166 268 287
17633 3 166 268 289
17634 1 167 268 170
17635 2 167 268 187
17636 1 167 268 265
17637 3 167 268 266
17638 2 167 268 267
17639 1 167 268 269
17640 3 167 268 270
17641 3 167 268 285
17642 4 167 268 287
17643 3 167 268 289
17644 1 170 268 187
17645 3 170 268 265
17646 4 170 268 266
17647 3 170 268 267
17648 1 170 268 269
17649 2 170 268 270
17650 3 170 268 285
17651 3 170 268 287
17652 1 170 268 289
17653 3 187 268 265
17654 3 187 268 266
17655 4 187 268 267
17656 3 187 268 269
17657 3 187 268 270
17658 1 187 268 285
17659 2 187 268 287
17660 1 187 268 289
17661 1 265 268 266
17662 1 265 268 267
17663 2 265 268 269
17664 3 265 268 270
17665 2 265 268 285
17666 3 265 268 287
17667 4 265 268 289
17668 1 266 268 267
17669 3 266 268 269
17670 2 266 268 270
17671 1 266 268 285
17672 1 266 268 287
17673 3 266 268 289
17674 1 267 268 269
17675 1 267 268 270
17676 3 267 268 285
17677 2 267 268 287
17678 3 267 268 289
17679 1 269 268 270
17680 4 269 268 285
17681 3 269 268 287
17682 2 269 268 289
17683 3 270 268 285
17684 1 270 268 287
17685 1 270 268 289
17686 1 285 268 287
17687 2 285 268 289
17688 1 287 268 289
17689 1 150 269 167
17690 2 150 269 170
17691 1 150 269 171
17692 1 150 269 248
17693 2 150 269 250
17694 1 150 269 252
17695 3 150 269 267
17696 3 150 269 268
17697 4 150 269 270
17698 3 150 269 271
17699 3 150 269 272
17700 1 167 269 170
17701 2 167 269 171
17702 1 167 269 248
17703 3 167 269 250
17704 3 167 269 252
17705 2 167 269 267
17706 1 167 269 268
17707 3 167 269 270
17708 4 167 269 271
17709 3 167 269 272
17710 1 170 269 171
17711 3 170 269 248
17712 4 170 269 250
17713 3 170 269 252
17714 3 170 269 267
17715 1 170 269 268
17716 2 170 269 270
17717 3 170 269 271
17718 1 170 269 272
17719 3 171 269 248
17720 3 171 269 250
17721 1 171 269 252
17722 4 171 269 267
17723 3 171 269 268
17724 3 171 269 270
17725 2 171 269 271
17726 1 171 269 272
17727 1 248 269 250
17728 2 248 269 252
17729 1 248 269 267
17730 2 248 269 268
17731 3 248 269 270
17732 3 248 269 271
17733 4 248 269 272
17734 1 250 269 252
17735 1 250 269 267
17736 3 250 269 268
17737 2 250 269 270
17738 1 250 269 271
17739 3 250 269 272
17740 3 252 269 267
17741 4 252 269 268
17742 3 252 269 270
17743 1 252 269 271
17744 2 252 269 272
17745 1 267 269 268
17746 1 267 269 270
17747 2 267 269 271
17748 3 267 269 272
17749 1 268 269 270
17750 3 268 269 271
17751 2 268 269 272
17752 1 270 269 271
17753 1 270 269 272
17754 1 271 269 272
17755 1 267 270 268
17756 1 267 270 269
17757 2 267 270 271
17758 3 267 270 272
17759 2 267 270 287
17760 3 267 270 289
17761 4 267 270 291
17762 1 267 270 368
17763 1 267 270 369
17764 3 267 270 372
17765 3 267 270 389
17766 1 268 270 269
17767 3 268 270 271
17768 2 268 270 272
17769 1 268 270 287
17770 1 268 270 289
17771 3 268 270 291
17772 2 268 270 368
17773 3 268 270 369
17774 4 268 270 372
17775 3 268 270 389
17776 1 269 270 271
17777 1 269 270 272
17778 3 269 270 287
17779 2 269 270 289
17780 3 269 270 291
17781 3 269 270 368
17782 2 269 270 369
17783 3 269 270 372
17784 4 269 270 389
17785 1 271 270 272
17786 4 271 270 287
17787 3 271 270 289
17788 2 271 270 291
17789 3 271 270 368
17790 1 271 270 369
17791 1 271 270 372
17792 3 271 270 389
17793 3 272 270 287
17794 1 272 270 289
17795 1 272 270 291
17796 4 272 270 368
17797 3 272 270 369
17798 2 272 270 372
17799 3 272 270 389
17800 1 287 270 289
17801 2 287 270 291
17802 1 287 270 368
17803 3 287 270 369
17804 3 287 270 372
17805 1 287 270 389
17806 1 289 270 291
17807 3 289 270 368
17808 4 289 270 369
17809 3 289 270 372
17810 2 289 270 389
17811 3 291 270 368
17812 3 291 270 369
17813 1 291 270 372
17814 1 291 270 389
17815 1 368 270 369
17816 2 368 270 372
17817 1 368 270 389
17818 1 369 270 372
17819 2 369 270 389
17820 1 372 270 389
17821 1 250 271 252
17822 2 250 271 254
17823 1 250 271 269
17824 2 250 271 270
17825 3 250 271 272
17826 3 250 271 273
17827 4 250 271 274
17828 1 250 271 352
17829 1 250 271 369
17830 3 250 271 372
17831 3 250 271 373
17832 1 252 271 254
17833 1 252 271 269
17834 3 252 271 270
17835 2 252 271 272
17836 1 252 271 273
17837 3 252 271 274
17838 2 252 271 352
17839 3 252 271 369
17840 4 252 271 372
17841 3 252 271 373
17842 3 254 271 269
17843 4 254 271 270
17844 3 254 271 272
17845 1 254 271 273
17846 2 254 271 274
17847 1 254 271 352
17848 3 254 271 369
17849 3 254 271 372
17850 1 254 271 373
17851 1 269 271 270
17852 1 269 271 272
17853 2 269 271 273
17854 3 269 271 274
17855 3 269 271 352
17856 2 269 271 369
17857 3 269 271 372
17858 4 269 271 373
17859 1 270 271 272
17860 3 270 271 273
17861 2 270 271 274
17862 3 270 271 352
17863 1 270 271 369
17864 1 270 271 372
17865 3 270 271 373
17866 1 272 271 273
17867 1 272 271 274
17868 4 272 271 352
17869 3 272 271 369
17870 2 272 271 372
17871 3 272 271 373
17872 1 273 271 274
17873 3 273 271 352
17874 4 273 271 369
17875 3 273 271 372
17876 2 273 271 373
17877 3 274 271 352
17878 3 274 271 369
17879 1 274 271 372
17880 1 274 271 373
17881 1 352 271 369
17882 2 352 271 372
17883 1 352 271 373
17884 1 369 271 372
17885 2 369 271 373
17886 1 372 271 373
17887 1 170 272 171
17888 2 170 272 174
17889 1 170 272 191
17890 1 170 272 269
17891 2 170 272 270
17892 3 170 272 271
17893 3 170 272 273
17894 4 170 272 274
17895 1 170 272 289
17896 3 170 272 291
17897 3 170 272 293
17898 1 171 272 174
17899 2 171 272 191
17900 1 171 272 269
17901 3 171 272 270
17902 2 171 272 271
17903 1 171 272 273
17904 3 171 272 274
17905 3 171 272 289
17906 4 171 272 291
17907 3 171 272 293
17908 1 174 272 191
17909 3 174 272 269
17910 4 174 272 270
17911 3 174 272 271
17912 1 174 272 273
17913 2 174 272 274
17914 3 174 272 289
17915 3 174 272 291
17916 1 174 272 293
17917 3 191 272 269
17918 3 191 272 270
17919 4 191 272 271
17920 3 191 272 273
17921 3 191 272 274
17922 1 191 272 289
17923 2 191 272 291
17924 1 191 272 293
17925 1 269 272 270
17926 1 269 272 271
17927 2 269 272 273
17928 3 269 272 274
17929 2 269 272 289
17930 3 269 272 291
17931 4 269 272 293
17932 1 270 272 271
17933 3 270 272 273
17934 2 270 272 274
17935 1 270 272 289
17936 1 270 272 291
17937 3 270 272 293
17938 1 271 272 273
17939 1 271 272 274
17940 3 271 272 289
17941 2 271 272 291
17942 3 271 272 293
17943 1 273 272 274
17944 4 273 272 289
17945 3 273 272 291
17946 2 273 272 293
17947 3 274 272 289
17948 1 274 272 291
17949 1 274 272 293
17950 1 289 272 291
17951 2 289 272 293
17952 1 291 272 293
17953 1 154 273 171
17954 2 154 273 174
17955 1 154 273 175
17956 1 154 273 252
17957 2 154 273 254
17958 1 154 273 256
17959 3 154 273 271
17960 3 154 273 272
17961 4 154 273 274
17962 3 154 273 275
17963 3 154 273 276
17964 1 171 273 174
17965 2 171 273 175
17966 1 171 273 252
17967 3 171 273 254
17968 3 171 273 256
17969 2 171 273 271
17970 1 171 273 272
17971 3 171 273 274
17972 4 171 273 275
17973 3 171 273 276
17974 1 174 273 175
17975 3 174 273 252
17976 4 174 273 254
17977 3 174 273 256
17978 3 174 273 271
17979 1 174 273 272
17980 2 174 273 274
17981 3 174 273 275
17982 1 174 273 276
17983 3 175 273 252
17984 3 175 273 254
17985 1 175 273 256
17986 4 175 273 271
17987 3 175 273 272
17988 3 175 273 274
17989 2 175 273 275
17990 1 175 273 276
17991 1 252 273 254
17992 2 252 273 256
17993 1 252 273 271
17994 2 252 273 272
17995 3 252 273 274
17996 3 252 273 275
17997 4 252 273 276
17998 1 254 273 256
17999 1 254 273 271
18000 3 254 273 272
18001 2 254 273 274
18002 1 254 273 275
18003 3 254 273 276
18004 3 256 273 271
18005 4 256 273 272
18006 3 256 273 274
18007 1 256 273 275
18008 2 256 273 276
18009 1 271 273 272
18010 1 271 273 274
18011 2 271 273 275
18012 3 271 273 276
18013 1 272 273 274
18014 3 272 273 275
18015 2 272 273 276
18016 1 274 273 275
18017 1 274 273 276
18018 1 275 273 276
18019 1 271 274 272
18020 1 271 274 273
18021 2 271 274 275
18022 3 271 274 276
18023 2 271 274 291
18024 3 271 274 293
18025 4 271 274 295
18026 1 271 274 372
18027 1 271 274 373
18028 3 271 274 376
18029 3 271 274 393
18030 1 272 274 273
18031 3 272 274 275
18032 2 272 274 276
18033 1 272 274 291
18034 1 272 274 293
18035 3 272 274 295
18036 2 272 274 372
18037 3 272 274 373
18038 4 272 274 376
18039 3 272 274 393
18040 1 273 274 275
18041 1 273 274 276
18042 3 273 274 291
18043 2 273 274 293
18044 3 273 274 295
18045 3 273 274 372
18046 2 273 274 373
18047 3 273 274 376
18048 4 273 274 393
18049 1 275 274 276
18050 4 275 274 291
18051 3 275 274 293
18052 2 275 274 295
18053 3 275 274 372
18054 1 275 274 373
18055 1 275 274 376
18056 3 275 274 393
18057 3 276 274 291
18058 1 276 274 293
18059 1 276 274 295
18060 4 276 274 372
18061 3 276 274 373
18062 2 276 274 376
18063 3 276 274 393
18064 1 291 274 293
18065 2 291 274 295
18066 1 291 274 372
18067 3 291 274 373
18068 3 291 274 376
18069 1 291 274 393
18070 1 293 274 295
18071 3 293 274 372
18072 4 293 274 373
18073 3 293 274 376
18074 2 293 274 393
18075 3 295 274 372
18076 3 295 274 373
18077 1 295 274 376
18078 1 295 274 393
18079 1 372 274 373
18080 2 372 274 376
18081 1 372 274 393
18082 1 373 274 376
18083 2 373 274 393
18084 1 376 274 393
18085 1 254 275 256
18086 2 254 275 258
18087 1 254 275 273
18088 2 254 275 274
18089 3 254 275 276
18090 3 254 275 277
18091 4 254 275 278
18092 1 254 275 356
18093 1 254 275 373
18094 3 254 275 376
18095 3 254 275 377
18096 1 256 275 258
18097 1 256 275 273
18098 3 256 275 274
18099 2 256 275 276
18100 1 256 275 277
18101 3 256 275 278
18102 2 256 275 356
18103 3 256 275 373
18104 4 256 275 376
18105 3 256 275 377
18106 3 258 275 273
18107 4 258 275 274
18108 3 258 275 276
18109 1 258 275 277
18110 2 258 275 278
18111 1 258 275 356
18112 3 258 275 373
18113 3 258 275 376
18114 1 258 275 377
18115 1 273 275 274
18116 1 273 275 276
18117 2 273 275 277
18118 3 273 275 278
18119 3 273 275 356
18120 2 273 275 373
18121 3 273 275 376
18122 4 273 275 377
18123 1 274 275 276
18124 3 274 275 277
18125 2 274 275 278
18126 3 274 275 356
18127 1 274 275 373
18128 1 274 275 376
18129 3 274 275 377
18130 1 276 275 277
18131 1 276 275 278
18132 4 276 275 356
18133 3 276 275 373
18134 2 276 275 376
18135 3 276 275 377
18136 1 277 275 278
18137 3 277 275 356
18138 4 277 275 373
18139 3 277 275 376
18140 2 277 275 377
18141 3 278 275 356
18142 3 278 275 373
18143 1 278 275 376
18144 1 278 275 377
18145 1 356 275 373
18146 2 356 275 376
18147 1 356 275 377
18148 1 373 275 376
18149 2 373 275 377
18150 1 376 275 377
18151 1 174 276 175
18152 2 174 276 178
18153 1 174 276 195
18154 1 174 276 273
18155 2 174 276 274
18156 3 174 276 275
18157 3 174 276 277
18158 4 174 276 278
18159 1 174 276 293
18160 3 174 276 295
18161 3 174 276 297
18162 1 175 276 178
18163 2 175 276 195
18164 1 175 276 273
18165 3 175 276 274
18166 2 175 276 275
18167 1 175 276 277
18168 3 175 276 278
18169 3 175 276 293
18170 4 175 276 295
18171 3 175 276 297
18172 1 178 276 195
18173 3 178 276 273
18174 4 178 276 274
18175 3 178 276 275
18176 1 178 276 277
18177 2 178 276 278
18178 3 178 276 293
18179 3 178 276 295
18180 1 178 276 297
18181 3 195 276 273
18182 3 195 276 274
18183 4 195 276 275
18184 3 195 276 277
18185 3 195 276 278
18186 1 195 276 293
18187 2 195 276 295
18188 1 195 276 297
18189 1 273 276 274
18190 1 273 276 275
18191 2 273 276 277
18192 3 273 276 278
18193 2 273 276 293
18194 3 273 276 295
18195 4 273 276 297
18196 1 274 276 275
18197 3 274 276 277
18198 2 274 276 278
18199 1 274 276 293
18200 1 274 276 295
18201 3 274 276 297
18202 1 275 276 277
18203 1 275 276 278
18204 3 275 276 293
18205 2 275 276 295
18206 3 275 276 297
18207 1 277 276 278
18208 4 277 276 293
18209 3 277 276 295
18210 2 277 276 297
18211 3 278 276 293
18212 1 278 276 295
18213 1 278 276 297
18214 1 293 276 295
18215 2 293 276 297
18216 1 295 276 297
18217 1 158 277 175
18218 2 158 277 178
18219 1 158 277 179
18220 1 158 277 256
18221 2 158 277 258
18222 1 158 277 260
18223 3 158 277 275
18224 3 158 277 276
18225 4 158 277 278
18226 3 158 277 279
18227 3 158 277 280
18228 1 175 277 178
18229 2 175 277 179
18230 1 175 277 256
18231 3 175 277 258
18232 3 175 277 260
18233 2 175 277 275
18234 1 175 277 276
18235 3 175 277 278
18236 4 175 277 279
18237 3 175 277 280
18238 1 178 277 179
18239 3 178 277 256
18240 4 178 277 258
18241 3 178 277 260
18242 3 178 277 275
18243 1 178 277 276
18244 2 178 277 278
18245 3 178 277 279
18246 1 178 277 280
18247 3 179 277 256
18248 3 179 277 258
18249 1 179 277 260
18250 4 179 277 275
18251 3 179 277 276
18252 3 179 277 278
18253 2 179 277 279
18254 1 179 277 280
18255 1 256 277 258
18256 2 256 277 260
18257 1 256 277 275
18258 2 256 277 276
18259 3 256 277 278
18260 3 256 277 279
18261 4 256 277 280
18262 1 258 277 260
18263 1 258 277 275
18264 3 258 277 276
18265 2 258 277 278
18266 1 258 277 279
18267 3 258 277 280
18268 3 260 277 275
18269 4 260 277 276
18270 3 260 277 278
18271 1 260 277 279
18272 2 260 277 280
18273 1 275 277 276
18274 1 275 277 278
18275 2 275 277 279
18276 3 275 277 280
18277 1 276 277 278
18278 3 276 277 279
18279 2 276 277 280
18280 1 278 277 279
18281 1 278 277 280
18282 1 279 277 280
18283 1 275 278 276
18284 1 275 278 277
18285 2 275 278 279
18286 3 275 278 280
18287 2 275 278 295
18288 3 275 278 297
18289 4 275 278 299
18290 1 275 278 376
18291 1 275 278 377
18292 3 275 278 380
18293 3 275 278 397
18294 1 276 278 277
18295 3 276 278 279
18296 2 276 278 280
18297 1 276 278 295
18298 1 276 278 297
18299 3 276 278 299
18300 2 276 278 376
18301 3 276 278 377
18302 4 276 278 380
18303 3 276 278 397
18304 1 277 278 279
18305 1 277 278 280
18306 3 277 278 295
18307 2 277 278 297
18308 3 277 278 299
18309 3 277 278 376
18310 2 277 278 377
18311 3 277 278 380
18312 4 277 278 397
18313 1 279 278 280
18314 4 279 278 295
18315 3 279 278 297
18316 2 279 278 299
18317 3 279 278 376
18318 1 279 278 377
18319 1 279 278 380
18320 3 279 278 397
18321 3 280 278 295
18322 1 280 278 297
18323 1 280 278 299
18324 4 280 278 376
18325 3 280 278 377
18326 2 280 278 380
18327 3 280 278 397
18328 1 295 278 297
18329 2 295 278 299
18330 1 295 278 376
18331 3 295 278 377
18332 3 295 278 380
18333 1 295 278 397
18334 1 297 278 299
18335 3 297 278 376
18336 4 297 278 377
18337 3 297 278 380
18338 2 297 278 397
18339 3 299 278 376
18340 3 299 278 377
18341 1 299 278 380
18342 1 299 278 397
18343 1 376 278 377
18344 2 376 278 380
18345 1 376 278 397
18346 1 377 278 380
18347 2 377 278 397
18348 1 380 278 397
18349 1 258 279 260
18350 2 258 279 242
18351 1 258 279 277
18352 2 258 279 278
18353 3 258 279 280
18354 3 258 279 261
18355 4 258 279 262
18356 1 258 279 360
18357 1 258 279 377
18358 3 258 279 380
18359 3 258 279 361
18360 1 260 279 242
18361 1 260 279 277
18362 3 260 279 278
18363 2 260 279 280
18364 1 260 279 261
18365 3 260 279 262
18366 2 260 279 360
18367 3 260 279 377
18368 4 260 279 380
18369 3 260 279 361
18370 3 242 279 277
18371 4 242 279 278
18372 3 242 279 280
18373 1 242 279 261
18374 2 242 279 262
18375 1 242 279 360
18376 3 242 279 377
18377 3 242 279 380
18378 1 242 279 361
18379 1 277 279 278
18380 1 277 279 280
18381 2 277 279 261
18382 3 277 279 262
18383 3 277 279 360
18384 2 277 279 377
18385 3 277 279 380
18386 4 277 279 361
18387 1 278 279 280
18388 3 278 279 261
18389 2 278 279 262
18390 3 278 279 360
18391 1 278 279 377
18392 1 278 279 380
18393 3 278 279 361
18394 1 280 279 261
18395 1 280 279 262
18396 4 280 279 360
18397 3 280 279 377
18398 2 280 279 380
18399 3 280 279 361
18400 1 261 279 262
18401 3 261 279 360
18402 4 261 279 377
18403 3 261 279 380
18404 2 261 279 361
18405 3 262 279 360
18406 3 262 279 377
18407 1 262 279 380
18408 1 262 279 361
18409 1 360 279 377
18410 2 360 279 380
18411 1 360 279 361
18412 1 377 279 380
18413 2 377 279 361
18414 1 380 279 361
18415 1 178 280 179
18416 2 178 280 162
18417 1 178 280 199
18418 1 178 280 277
18419 2 178 280 278
18420 3 178 280 279
18421 3 178 280 261
18422 4 178 280 262
18423 1 178 280 297
18424 3 178 280 299
18425 3 178 280 281
18426 1 179 280 162
18427 2 179 280 199
18428 1 179 280 277
18429 3 179 280 278
18430 2 179 280 279
18431 1 179 280 261
18432 3 179 280 262
18433 3 179 280 297
18434 4 179 280 299
18435 3 179 280 281
18436 1 162 280 199
18437 3 162 280 277
18438 4 162 280 278
18439 3 162 280 279
18440 1 162 280 261
18441 2 162 280 262
18442 3 162 280 297
18443 3 162 280 299
18444 1 162 280 281
18445 3 199 280 277
18446 3 199 280 278
18447 4 199 280 279
18448 3 199 280 261
18449 3 199 280 262
18450 1 199 280 297
18451 2 199 280 299
18452 1 199 280 281
18453 1 277 280 278
18454 1 277 280 279
18455 2 277 280 261
18456 3 277 280 262
18457 2 277 280 297
18458 3 277 280 299
18459 4 277 280 281
18460 1 278 280 279
18461 3 278 280 261
18462 2 278 280 262
18463 1 278 280 297
18464 1 278 280 299
18465 3 278 280 281
18466 1 279 280 261
18467 1 279 280 262
18468 3 279 280 297
18469 2 279 280 299
18470 3 279 280 281
18471 1 261 280 262
18472 4 261 280 297
18473 3 261 280 299
18474 2 261 280 281
18475 3 262 280 297
18476 1 262 280 299
18477 1 262 280 281
18478 1 297 280 299
18479 2 297 280 281
18480 1 299 280 281
18481 1 162 281 199
18482 2 162 281 182
18483 1 162 281 183
18484 1 162 281 280
18485 2 162 281 262
18486 1 162 281 264
18487 3 162 281 299
18488 3 162 281 300
18489 4 162 281 282
18490 3 162 281 283
18491 3 162 281 284
18492 1 199 281 182
18493 2 199 281 183
18494 1 199 281 280
18495 3 199 281 262
18496 3 199 281 264
18497 2 199 281 299
18498 1 199 281 300
18499 3 199 281 282
18500 4 199 281 283
18501 3 199 281 284
18502 1 182 281 183
18503 3 182 281 280
18504 4 182 281 262
18505 3 182 281 264
18506 3 182 281 299
18507 1 182 281 300
18508 2 182 281 282
18509 3 182 281 283
18510 1 182 281 284
18511 3 183 281 280
18512 3 183 281 262
18513 1 183 281 264
18514 4 183 281 299
18515 3 183 281 300
18516 3 183 281 282
18517 2 183 281 283
18518 1 183 281 284
18519 1 280 281 262
18520 2 280 281 264
18521 1 280 281 299
18522 2 280 281 300
18523 3 280 281 282
18524 3 280 281 283
18525 4 280 281 284
18526 1 262 281 264
18527 1 262 281 299
18528 3 262 281 300
18529 2 262 281 282
18530 1 262 281 283
18531 3 262 281 284
18532 3 264 281 299
18533 4 264 281 300
18534 3 264 281 282
18535 1 264 281 283
18536 2 264 281 284
18537 1 299 281 300
18538 1 299 281 282
18539 2 299 281 283
18540 3 299 281 284
18541 1 300 281 282
18542 3 300 281 283
18543 2 300 281 284
18544 1 282 281 283
18545 1 282 281 284
18546 1 283 281 284
18547 1 299 282 300
18548 1 299 282 281
18549 2 299 282 283
18550 3 299 282 284
18551 2 299 282 219
18552 3 299 282 201
18553 4 299 282 203
18554 1 299 282 400
18555 1 299 282 381
18556 3 299 282 384
18557 3 299 282 301
18558 1 300 282 281
18559 3 300 282 283
18560 2 300 282 284
18561 1 300 282 219
18562 1 300 282 201
18563 3 300 282 203
18564 2 300 282 400
18565 3 300 282 381
18566 4 300 282 384
18567 3 300 282 301
18568 1 281 282 283
18569 1 281 282 284
18570 3 281 282 219
18571 2 281 282 201
18572 3 281 282 203
18573 3 281 282 400
18574 2 281 282 381
18575 3 281 282 384
18576 4 281 282 301
18577 1 283 282 284
18578 4 283 282 219
18579 3 283 282 201
18580 2 283 282 203
18581 3 283 282 400
18582 1 283 282 381
18583 1 283 282 384
18584 3 283 282 301
18585 3 284 282 219
18586 1 284 282 201
18587 1 284 282 203
18588 4 284 282 400
18589 3 284 282 381
18590 2 284 282 384
18591 3 284 282 301
18592 1 219 282 201
18593 2 219 282 203
18594 1 219 282 400
18595 3 219 282 381
18596 3 219 282 384
18597 1 219 282 301
18598 1 201 282 203
18599 3 201 282 400
18600 4 201 282 381
18601 3 201 282 384
18602 2 201 282 301
18603 3 203 282 400
18604 3 203 282 381
18605 1 203 282 384
18606 1 203 282 301
18607 1 400 282 381
18608 2 400 282 384
18609 1 400 282 301
18610 1 381 282 384
18611 2 381 282 301
18612 1 384 282 301
18613 1 262 283 264
18614 2 262 283 266
18615 1 262 283 281
18616 2 262 283 282
18617 3 262 283 284
18618 3 262 283 285
18619 4 262 283 286
18620 1 262 283 364
18621 1 262 283 381
18622 3 262 283 384
18623 3 262 283 385
18624 1 264 283 266
18625 1 264 283 281
18626 3 264 283 282
18627 2 264 283 284
18628 1 264 283 285
18629 3 264 283 286
18630 2 264 283 364
18631 3 264 283 381
18632 4 264 283 384
18633 3 264 283 385
18634 3 266 283 281
18635 4 266 283 282
18636 3 266 283 284
18637 1 266 283 285
18638 2 266 283 286
18639 1 266 283 364
18640 3 266 283 381
18641 3 266 283 384
18642 1 266 283 385
18643 1 281 283 282
18644 1 281 283 284
18645 2 281 283 285
18646 3 281 283 286
18647 3 281 283 364
18648 2 281 283 381
18649 3 281 283 384
18650 4 281 283 385
18651 1 282 283 284
18652 3 282 283 285
18653 2 282 283 286
18654 3 282 283 364
18655 1 282 283 381
18656 1 282 283 384
18657 3 282 283 385
18658 1 284 283 285
18659 1 284 283 286
18660 4 284 283 364
18661 3 284 283 381
18662 2 284 283 384
18663 3 284 283 385
18664 1 285 283 286
18665 3 285 283 364
18666 4 285 283 381
18667 3 285 283 384
18668 2 285 283 385
18669 3 286 283 364
18670 3 286 283 381
18671 1 286 283 384
18672 1 286 283 385
18673 1 364 283 381
18674 2 364 283 384
18675 1 364 283 385
18676 1 381 283 384
18677 2 381 283 385
18678 1 384 283 385
18679 1 182 284 183
18680 2 182 284 186
18681 1 182 284 103
18682 1 182 284 281
18683 2 182 284 282
18684 3 182 284 283
18685 3 182 284 285
18686 4 182 284 286
18687 1 182 284 201
18688 3 182 284 203
18689 3 182 284 205
18690 1 183 284 186
18691 2 183 284 103
18692 1 183 284 281
18693 3 183 284 282
18694 2 183 284 283
18695 1 183 284 285
18696 3 183 284 286
18697 3 183 284 201
18698 4 183 284 203
18699 3 183 284 205
18700 1 186 284 103
18701 3 186 284 281
18702 4 186 284 282
18703 3 186 284 283
18704 1 186 284 285
18705 2 186 284 286
18706 3 186 284 201
18707 3 186 284 203
18708 1 186 284 205
18709 3 103 284 281
18710 3 103 284 282
18711 4 103 284 283
18712 3 103 284 285
18713 3 103 284 286
18714 1 103 284 201
18715 2 103 284 203
18716 1 103 284 205
18717 1 281 284 282
18718 1 281 284 283
18719 2 281 284 285
18720 3 281 284 286
18721 2 281 284 201
18722 3 281 284 203
18723 4 281 284 205
18724 1 282 284 283
18725 3 282 284 285
18726 2 282 284 286
18727 1 282 284 201
18728 1 282 284 203
18729 3 282 284 205
18730 1 283 284 285
18731 1 283 284 286
18732 3 283 284 201
18733 2 283 284 203
18734 3 283 284 205
18735 1 285 284 286
18736 4 285 284 201
18737 3 285 284 203
18738 2 285 284 205
18739 3 286 284 201
18740 1 286 284 203
18741 1 286 284 205
18742 1 201 284 203
18743 2 201 284 205
18744 1 203 284 205
18745 1 166 285 183
18746 2 166 285 186
18747 1 166 285 187
18748 1 166 285 264
18749 2 166 285 266
18750 1 166 285 268
18751 3 166 285 283
18752 3 166 285 284
18753 4 166 285 286
18754 3 166 285 287
18755 3 166 285 288
18756 1 183 285 186
18757 2 183 285 187
18758 1 183 285 264
18759 3 183 285 266
18760 3 183 285 268
18761 2 183 285 283
18762 1 183 285 284
18763 3 183 285 286
18764 4 183 285 287
18765 3 183 285 288
18766 1 186 285 187
18767 3 186 285 264
18768 4 186 285 266
18769 3 186 285 268
18770 3 186 285 283
18771 1 186 285 284
18772 2 186 285 286
18773 3 186 285 287
18774 1 186 285 288
18775 3 187 285 264
18776 3 187 285 266
18777 1 187 285 268
18778 4 187 285 283
18779 3 187 285 284
18780 3 187 285 286
18781 2 187 285 287
18782 1 187 285 288
18783 1 264 285 266
18784 2 264 285 268
18785 1 264 285 283
18786 2 264 285 284
18787 3 264 285 286
18788 3 264 285 287
18789 4 264 285 288
18790 1 266 285 268
18791 1 266 285 283
18792 3 266 285 284
18793 2 266 285 286
18794 1 266 285 287
18795 3 266 285 288
18796 3 268 285 283
18797 4 268 285 284
18798 3 268 285 286
18799 1 268 285 287
18800 2 268 285 288
18801 1 283 285 284
18802 1 283 285 286
18803 2 283 285 287
18804 3 283 285 288
18805 1 284 285 286
18806 3 284 285 287
18807 2 284 285 288
18808 1 286 285 287
18809 1 286 285 288
18810 1 287 285 288
18811 1 283 286 284
18812 1 283 286 285
18813 2 283 286 287
18814 3 283 286 288
18815 2 283 286 203
18816 3 283 286 205
18817 4 283 286 207
18818 1 283 286 384
18819 1 283 286 385
18820 3 283 286 388
18821 3 283 286 305
18822 1 284 286 285
18823 3 284 286 287
18824 2 284 286 288
18825 1 284 286 203
18826 1 284 286 205
18827 3 284 286 207
18828 2 284 286 384
18829 3 284 286 385
18830 4 284 286 388
18831 3 284 286 305
18832 1 285 286 287
18833 1 285 286 288
18834 3 285 286 203
18835 2 285 286 205
18836 3 285 286 207
18837 3 285 286 384
18838 2 285 286 385
18839 3 285 286 388
18840 4 285 286 305
18841 1 287 286 288
18842 4 287 286 203
18843 3 287 286 205
18844 2 287 286 207
18845 3 287 286 384
18846 1 287 286 385
18847 1 287 286 388
18848 3 287 286 305
18849 3 288 286 203
18850 1 288 286 205
18851 1 288 286 207
18852 4 288 286 384
18853 3 288 286 385
18854 2 288 286 388
18855 3 288 286 305
18856 1 203 286 205
18857 2 203 286 207
18858 1 203 286 384
18859 3 203 286 385
18860 3 203 286 388
18861 1 203 286 305
18862 1 205 286 207
18863 3 205 286 384
18864 4 205 286 385
18865 3 205 286 388
18866 2 205 286 305
18867 3 207 286 384
18868 3 207 286 385
18869 1 207 286 388
18870 1 207 286 305
18871 1 384 286 385
18872 2 384 286 388
18873 1 384 286 305
18874 1 385 286 388
18875 2 385 286 305
18876 1 388 286 305
18877 1 266 287 268
18878 2 266 287 270
18879 1 266 287 285
18880 2 266 287 286
18881 3 266 287 288
18882 3 266 287 289
18883 4 266 287 290
18884 1 266 287 368
18885 1 266 287 385
18886 3 266 287 388
18887 3 266 287 389
18888 1 268 287 270
18889 1 268 287 285
18890 3 268 287 286
18891 2 268 287 288
18892 1 268 287 289
18893 3 268 287 290
18894 2 268 287 368
18895 3 268 287 385
18896 4 268 287 388
18897 3 268 287 389
18898 3 270 287 285
18899 4 270 287 286
18900 3 270 287 288
18901 1 270 287 289
18902 2 270 287 290
18903 1 270 287 368
18904 3 270 287 385
18905 3 270 287 388
18906 1 270 287 389
18907 1 285 287 286
18908 1 285 287 288
18909 2 285 287 289
18910 3 285 287 290
18911 3 285 287 368
18912 2 285 287 385
18913 3 285 287 388
18914 4 285 287 389
18915 1 286 287 288
18916 3 286 287 289
18917 2 286 287 290
18918 3 286 287 368
18919 1 286 287 385
18920 1 286 287 388
18921 3 286 287 389
18922 1 288 287 289
18923 1 288 287 290
18924 4 288 287 368
18925 3 288 287 385
18926 2 288 287 388
18927 3 288 287 389
18928 1 289 287 290
18929 3 289 287 368
18930 4 289 287 385
18931 3 289 287 388
18932 2 289 287 389
18933 3 290 287 368
18934 3 290 287 385
18935 1 290 287 388
18936 1 290 287 389
18937 1 368 287 385
18938 2 368 287 388
18939 1 368 287 389
18940 1 385 287 388
18941 2 385 287 389
18942 1 388 287 389
18943 1 186 288 187
18944 2 186 288 190
18945 1 186 288 107
18946 1 186 288 285
18947 2 186 288 286
18948 3 186 288 287
18949 3 186 288 289
18950 4 186 288 290
18951 1 186 288 205
18952 3 186 288 207
18953 3 186 288 209
18954 1 187 288 190
18955 2 187 288 107
18956 1 187 288 285
18957 3 187 288 286
18958 2 187 288 287
18959 1 187 288 289
18960 3 187 288 290
18961 3 187 288 205
18962 4 187 288 207
18963 3 187 288 209
18964 1 190 288 107
18965 3 190 288 285
18966 4 190 288 286
18967 3 190 288 287
18968 1 190 288 289
18969 2 190 288 290
18970 3 190 288 205
18971 3 190 288 207
18972 1 190 288 209
18973 3 107 288 285
18974 3 107 288 286
18975 4 107 288 287
18976 3 107 288 289
18977 3 107 288 290
18978 1 107 288 205
18979 2 107 288 207
18980 1 107 288 209
18981 1 285 288 286
18982 1 285 288 287
18983 2 285 288 289
18984 3 285 288 290
18985 2 285 288 205
18986 3 285 288 207
18987 4 285 288 209
18988 1 286 288 287
18989 3 286 288 289
18990 2 286 288 290
18991 1 286 288 205
18992 1 286 288 207
18993 3 286 288 209
18994 1 287 288 289
18995 1 287 288 290
18996 3 287 288 205
18997 2 287 288 207
18998 3 287 288 209
18999 1 289 288 290
19000 4 289 288 205
19001 3 289 288 207
19002 2 289 288 209
19003 3 290 288 205
19004 1 290 288 207
19005 1 290 288 209
19006 1 205 288 207
19007 2 205 288 209
19008 1 207 288 209
19009 1 170 289 187
19010 2 170 289 190
19011 1 170 289 191
19012 1 170 289 268
19013 2 170 289 270
19014 1 170 289 272
19015 3 170 289 287
19016 3 170 289 288
19017 4 170 289 290
19018 3 170 289 291
19019 3 170 289 292
19020 1 187 289 190
19021 2 187 289 191
19022 1 187 289 268
19023 3 187 289 270
19024 3 187 289 272
19025 2 187 289 287
19026 1 187 289 288
19027 3 187 289 290
19028 4 187 289 291
19029 3 187 289 292
19030 1 190 289 191
19031 3 190 289 268
19032 4 190 289 270
19033 3 190 289 272
19034 3 190 289 287
19035 1 190 289 288
19036 2 190 289 290
19037 3 190 289 291
19038 1 190 289 292
19039 3 191 289 268
19040 3 191 289 270
19041 1 191 289 272
19042 4 191 289 287
19043 3 191 289 288
19044 3 191 289 290
19045 2 191 289 291
19046 1 191 289 292
19047 1 268 289 270
19048 2 268 289 272
19049 1 268 289 287
19050 2 268 289 288
19051 3 268 289 290
19052 3 268 289 291
19053 4 268 289 292
19054 1 270 289 272
19055 1 270 289 287
19056 3 270 289 288
19057 2 270 289 290
19058 1 270 289 291
19059 3 270 289 292
19060 3 272 289 287
19061 4 272 289 288
19062 3 272 289 290
19063 1 272 289 291
19064 2 272 289 292
19065 1 287 289 288
19066 1 287 289 290
19067 2 287 289 291
19068 3 287 289 292
19069 1 288 289 290
19070 3 288 289 291
19071 2 288 289 292
19072 1 290 289 291
19073 1 290 289 292
19074 1 291 289 292
19075 1 287 290 288
19076 1 287 290 289
19077 2 287 290 291
19078 3 287 290 292
19079 2 287 290 207
19080 3 287 290 209
19081 4 287 290 211
19082 1 287 290 388
19083 1 287 290 389
19084 3 287 290 392
19085 3 287 290 309
19086 1 288 290 289
19087 3 288 290 291
19088 2 288 290 292
19089 1 288 290 207
19090 1 288 290 209
19091 3 288 290 211
19092 2 288 290 388
19093 3 288 290 389
19094 4 288 290 392
19095 3 288 290 309
19096 1 289 290 291
19097 1 289 290 292
19098 3 289 290 207
19099 2 289 290 209
19100 3 289 290 211
19101 3 289 290 388
19102 2 289 290 389
19103 3 289 290 392
19104 4 289 290 309
19105 1 291 290 292
19106 4 291 290 207
19107 3 291 290 209
19108 2 291 290 211
19109 3 291 290 388
19110 1 291 290 389
19111 1 291 290 392
19112 3 291 290 309
19113 3 292 290 207
19114 1 292 290 209
19115 1 292 290 211
19116 4 292 290 388
19117 3 292 290 389
19118 2 292 290 392
19119 3 292 290 309
19120 1 207 290 209
19121 2 207 290 211
19122 1 207 290 388
19123 3 207 290 389
19124 3 207 290 392
19125 1 207 290 309
19126 1 209 290 211
19127 3 209 290 388
19128 4 209 290 389
19129 3 209 290 392
19130 2 209 290 309
19131 3 211 290 388
19132 3 211 290 389
19133 1 211 290 392
19134 1 211 290 309
19135 1 388 290 389
19136 2 388 290 392
19137 1 388 290 309
19138 1 389 290 392
19139 2 389 290 309
19140 1 392 290 309
19141 1 270 291 272
19142 2 270 291 274
19143 1 270 291 289
19144 2 270 291 290
19145 3 270 291 292
19146 3 270 291 293
19147 4 270 291 294
19148 1 270 291 372
19149 1 270 291 389
19150 3 270 291 392
19151 3 270 291 393
19152 1 272 291 274
19153 1 272 291 289
19154 3 272 291 290
19155 2 272 291 292
19156 1 272 291 293
19157 3 272 291 294
19158 2 272 291 372
19159 3 272 291 389
19160 4 272 291 392
19161 3 272 291 393
19162 3 274 291 289
19163 4 274 291 290
19164 3 274 291 292
19165 1 274 291 293
19166 2 274 291 294
19167 1 274 291 372
19168 3 274 291 389
19169 3 274 291 392
19170 1 274 291 393
19171 1 289 291 290
19172 1 289 291 292
19173 2 289 291 293
19174 3 289 291 294
19175 3 289 291 372
19176 2 289 291 389
19177 3 289 291 392
19178 4 289 291 393
19179 1 290 291 292
19180 3 290 291 293
19181 2 290 291 294
19182 3 290 291 372
19183 1 290 291 389
19184 1 290 291 392
19185 3 290 291 393
19186 1 292 291 293
19187 1 292 291 294
19188 4 292 291 372
19189 3 292 291 389
19190 2 292 291 392
19191 3 292 291 393
19192 1 293 291 294
19193 3 293 291 372
19194 4 293 291 389
19195 3 293 291 392
19196 2 293 291 393
19197 3 294 291 372
19198 3 294 291 389
19199 1 294 291 392
19200 1 294 291 393
19201 1 372 291 389
19202 2 372 291 392
19203 1 372 291 393
19204 1 389 291 392
19205 2 389 291 393
19206 1 392 291 393
19207 1 190 292 191
19208 2 190 292 194
19209 1 190 292 111
19210 1 190 292 289
19211 2 190 292 290
19212 3 190 292 291
19213 3 190 292 293
19214 4 190 292 294
19215 1 190 292 209
19216 3 190 292 211
19217 3 190 292 213
19218 1 191 292 194
19219 2 191 292 111
19220 1 191 292 289
19221 3 191 292 290
19222 2 191 292 291
19223 1 191 292 293
19224 3 191 292 294
19225 3 191 292 209
19226 4 191 292 211
19227 3 191 292 213
19228 1 194 292 111
19229 3 194 292 289
19230 4 194 292 290
19231 3 194 292 291
19232 1 194 292 293
19233 2 194 292 294
19234 3 194 292 209
19235 3 194 292 211
19236 1 194 292 213
19237 3 111 292 289
19238 3 111 292 290
19239 4 111 292 291
19240 3 111 292 293
19241 3 111 292 294
19242 1 111 292 209
19243 2 111 292 211
19244 1 111 292 213
19245 1 289 292 290
19246 1 289 292 291
19247 2 289 292 293
19248 3 289 292 294
19249 2 289 292 209
19250 3 289 292 211
19251 4 289 292 213
19252 1 290 292 291
19253 3 290 292 293
19254 2 290 292 294
19255 1 290 292 209
19256 1 290 292 211
19257 3 290 292 213
19258 1 291 292 293
19259 1 291 292 294
19260 3 291 292 209
19261 2 291 292 211
19262 3 291 292 213
19263 1 293 292 294
19264 4 293 292 209
19265 3 293 292 211
19266 2 293 292 213
19267 3 294 292 209
19268 1 294 292 211
19269 1 294 292 213
19270 1 209 292 211
19271 2 209 292 213
19272 1 211 292 213
19273 1 174 293 191
19274 2 174 293 194
19275 1 174 293 195
19276 1 174 293 272
19277 2 174 293 274
19278 1 174 293 276
19279 3 174 293 291
19280 3 174 293 292
19281 4 174 293 294
19282 3 174 293 295
19283 3 174 293 296
19284 1 191 293 194
19285 2 191 293 195
19286 1 191 293 272
19287 3 191 293 274
19288 3 191 293 276
19289 2 191 293 291
19290 1 191 293 292
19291 3 191 293 294
19292 4 191 293 295
19293 3 191 293 296
19294 1 194 293 195
19295 3 194 293 272
19296 4 194 293 274
19297 3 194 293 276
19298 3 194 293 291
19299 1 194 293 292
19300 2 194 293 294
19301 3 194 293 295
19302 1 194 293 296
19303 3 195 293 272
19304 3 195 293 274
19305 1 195 293 276
19306 4 195 293 291
19307 3 195 293 292
19308 3 195 293 294
19309 2 195 293 295
19310 1 195 293 296
19311 1 272 293 274
19312 2 272 293 276
19313 1 272 293 291
19314 2 272 293 292
19315 3 272 293 294
19316 3 272 293 295
19317 4 272 293 296
19318 1 274 293 276
19319 1 274 293 291
19320 3 274 293 292
19321 2 274 293 294
19322 1 274 293 295
19323 3 274 293 296
19324 3 276 293 291
19325 4 276 293 292
19326 3 276 293 294
19327 1 276 293 295
19328 2 276 293 296
19329 1 291 293 292
19330 1 291 293 294
19331 2 291 293 295
19332 3 291 293 296
19333 1 292 293 294
19334 3 292 293 295
19335 2 292 293 296
19336 1 294 293 295
19337 1 294 293 296
19338 1 295 293 296
19339 1 291 294 292
19340 1 291 294 293
19341 2 291 294 295
19342 3 291 294 296
19343 2 291 294 211
19344 3 291 294 213
19345 4 291 294 215
19346 1 291 294 392
19347 1 291 294 393
19348 3 291 294 396
19349 3 291 294 313
19350 1 292 294 293
19351 3 292 294 295
19352 2 292 294 296
19353 1 292 294 211
19354 1 292 294 213
19355 3 292 294 215
19356 2 292 294 392
19357 3 292 294 393
19358 4 292 294 396
19359 3 292 294 313
19360 1 293 294 295
19361 1 293 294 296
19362 3 293 294 211
19363 2 293 294 213
19364 3 293 294 215
19365 3 293 294 392
19366 2 293 294 393
19367 3 293 294 396
19368 4 293 294 313
19369 1 295 294 296
19370 4 295 294 211
19371 3 295 294 213
19372 2 295 294 215
19373 3 295 294 392
19374 1 295 294 393
19375 1 295 294 396
19376 3 295 294 313
19377 3 296 294 211
19378 1 296 294 213
19379 1 296 294 215
19380 4 296 294 392
19381 3 296 294 393
19382 2 296 294 396
19383 3 296 294 313
19384 1 211 294 213
19385 2 211 294 215
19386 1 211 294 392
19387 3 211 294 393
19388 3 211 294 396
19389 1 211 294 313
19390 1 213 294 215
19391 3 213 294 392
19392 4 213 294 393
19393 3 213 294 396
19394 2 213 294 313
19395 3 215 294 392
19396 3 215 294 393
19397 1 215 294 396
19398 1 215 294 313
19399 1 392 294 393
19400 2 392 294 396
19401 1 392 294 313
19402 1 393 294 396
19403 2 393 294 313
19404 1 396 294 313
19405 1 274 295 276
19406 2 274 295 278
19407 1 274 295 293
19408 2 274 295 294
19409 3 274 295 296
19410 3 274 295 297
19411 4 274 295 298
19412 1 274 295 376
19413 1 274 295 393
19414 3 274 295 396
19415 3 274 295 397
19416 1 276 295 278
19417 1 276 295 293
19418 3 276 295 294
19419 2 276 295 296
19420 1 276 295 297
19421 3 276 295 298
19422 2 276 295 376
19423 3 276 295 393
19424 4 276 295 396
19425 3 276 295 397
19426 3 278 295 293
19427 4 278 295 294
19428 3 278 295 296
19429 1 278 295 297
19430 2 278 295 298
19431 1 278 295 376
19432 3 278 295 393
19433 3 278 295 396
19434 1 278 295 397
19435 1 293 295 294
19436 1 293 295 296
19437 2 293 295 297
19438 3 293 295 298
19439 3 293 295 376
19440 2 293 295 393
19441 3 293 295 396
19442 4 293 295 397
19443 1 294 295 296
19444 3 294 295 297
19445 2 294 295 298
19446 3 294 295 376
19447 1 294 295 393
19448 1 294 295 396
19449 3 294 295 397
19450 1 296 295 297
19451 1 296 295 298
19452 4 296 295 376
19453 3 296 295 393
19454 2 296 295 396
19455 3 296 295 397
19456 1 297 295 298
19457 3 297 295 376
19458 4 297 295 393
19459 3 297 295 396
19460 2 297 295 397
19461 3 298 295 376
19462 3 298 295 393
19463 1 298 295 396
19464 1 298 295 397
19465 1 376 295 393
19466 2 376 295 396
19467 1 376 295 397
19468 1 393 295 396
19469 2 393 295 397
19470 1 396 295 397
19471 1 194 296 195
19472 2 194 296 198
19473 1 194 296 115
19474 1 194 296 293
19475 2 194 296 294
19476 3 194 296 295
19477 3 194 296 297
19478 4 194 296 298
19479 1 194 296 213
19480 3 194 296 215
19481 3 194 296 217
19482 1 195 296 198
19483 2 195 296 115
19484 1 195 296 293
19485 3 195 296 294
19486 2 195 296 295
19487 1 195 296 297
19488 3 195 296 298
19489 3 195 296 213
19490 4 195 296 215
19491 3 195 296 217
19492 1 198 296 115
19493 3 198 296 293
19494 4 198 296 294
19495 3 198 296 295
19496 1 198 296 297
19497 2 198 296 298
19498 3 198 296 213
19499 3 198 296 215
19500 1 198 296 217
19501 3 115 296 293
19502 3 115 296 294
19503 4 115 296 295
19504 3 115 296 297
19505 3 115 296 298
19506 1 115 296 213
19507 2 115 296 215
19508 1 115 296 217
19509 1 293 296 294
19510 1 293 296 295
19511 2 293 296 297
19512 3 293 296 298
19513 2 293 296 213
19514 3 293 296 215
19515 4 293 296 217
19516 1 294 296 295
19517 3 294 296 297
19518 2 294 296 298
19519 1 294 296 213
19520 1 294 296 215
19521 3 294 296 217
19522 1 295 296 297
19523 1 295 296 298
19524 3 295 296 213
19525 2 295 296 215
19526 3 295 296 217
19527 1 297 296 298
19528 4 297 296 213
19529 3 297 296 215
19530 2 297 296 217
19531 3 298 296 213
19532 1 298 296 215
19533 1 298 296 217
19534 1 213 296 215
19535 2 213 296 217
19536 1 215 296 217
19537 1 178 297 195
19538 2 178 297 198
19539 1 178 297 199
19540 1 178 297 276
19541 2 178 297 278
19542 1 178 297 280
19543 3 178 297 295
19544 3 178 297 296
19545 4 178 297 298
19546 3 178 297 299
19547 3 178 297 300
19548 1 195 297 198
19549 2 195 297 199
19550 1 195 297 276
19551 3 195 297 278
19552 3 195 297 280
19553 2 195 297 295
19554 1 195 297 296
19555 3 195 297 298
19556 4 195 297 299
19557 3 195 297 300
19558 1 198 297 199
19559 3 198 297 276
19560 4 198 297 278
19561 3 198 297 280
19562 3 198 297 295
19563 1 198 297 296
19564 2 198 297 298
19565 3 198 297 299
19566 1 198 297 300
19567 3 199 297 276
19568 3 199 297 278
19569 1 199 297 280
19570 4 199 297 295
19571 3 199 297 296
19572 3 199 297 298
19573 2 199 297 299
19574 1 199 297 300
19575 1 276 297 278
19576 2 276 297 280
19577 1 276 297 295
19578 2 276 297 296
19579 3 276 297 298
19580 3 276 297 299
19581 4 276 297 300
19582 1 278 297 280
19583 1 278 297 295
19584 3 278 297 296
19585 2 278 297 298
19586 1 278 297 299
19587 3 278 297 300
19588 3 280 297 295
19589 4 280 297 296
19590 3 280 297 298
19591 1 280 297 299
19592 2 280 297 300
19593 1 295 297 296
19594 1 295 297 298
19595 2 295 297 299
19596 3 295 297 300
19597 1 296 297 298
19598 3 296 297 299
19599 2 296 297 300
19600 1 298 297 299
19601 1 298 297 300
19602 1 299 297 300
19603 1 295 298 296
19604 1 295 298 297
19605 2 295 298 299
19606 3 295 298 300
19607 2 295 298 215
19608 3 295 298 217
19609 4 295 298 219
19610 1 295 298 396
19611 1 295 298 397
19612 3 295 298 400
19613 3 295 298 317
19614 1 296 298 297
19615 3 296 298 299
19616 2 296 298 300
19617 1 296 298 215
19618 1 296 298 217
19619 3 296 298 219
19620 2 296 298 396
19621 3 296 298 397
19622 4 296 298 400
19623 3 296 298 317
19624 1 297 298 299
19625 1 297 298 300
19626 3 297 298 215
19627 2 297 298 217
19628 3 297 298 219
19629 3 297 298 396
19630 2 297 298 397
19631 3 297 298 400
19632 4 297 298 317
19633 1 299 298 300
19634 4 299 298 215
19635 3 299 298 217
19636 2 299 298 219
19637 3 299 298 396
19638 1 299 298 397
19639 1 299 298 400
19640 3 299 298 317
19641 3 300 298 215
19642 1 300 298 217
19643 1 300 298 219
19644 4 300 298 396
19645 3 300 298 397
19646 2 300 298 400
19647 3 300 298 317
19648 1 215 298 217
19649 2 215 298 219
19650 1 215 298 396
19651 3 215 298 397
19652 3 215 298 400
19653 1 215 298 317
19654 1 217 298 219
19655 3 217 298 396
19656 4 217 298 397
19657 3 217 298 400
19658 2 217 298 317
19659 3 219 298 396
19660 3 219 298 397
19661 1 219 298 400
19662 1 219 298 317
19663 1 396 298 397
19664 2 396 298 400
19665 1 396 298 317
19666 1 397 298 400
19667 2 397 298 317
19668 1 400 298 317
19669 1 278 299 280
19670 2 278 299 262
19671 1 278 299 297
19672 2 278 299 298
19673 3 278 299 300
19674 3 278 299 281
19675 4 278 299 282
19676 1 278 299 380
19677 1 278 299 397
19678 3 278 299 400
19679 3 278 299 381
19680 1 280 299 262
19681 1 280 299 297
19682 3 280 299 298
19683 2 280 299 300
19684 1 280 299 281
19685 3 280 299 282
19686 2 280 299 380
19687 3 280 299 397
19688 4 280 299 400
19689 3 280 299 381
19690 3 262 299 297
19691 4 262 299 298
19692 3 262 299 300
19693 1 262 299 281
19694 2 262 299 282
19695 1 262 299 380
19696 3 262 299 397
19697 3 262 299 400
19698 1 262 299 381
19699 1 297 299 298
19700 1 297 299 300
19701 2 297 299 281
19702 3 297 299 282
19703 3 297 299 380
19704 2 297 299 397
19705 3 297 299 400
19706 4 297 299 381
19707 1 298 299 300
19708 3 298 299 281
19709 2 298 299 282
19710 3 298 299 380
19711 1 298 299 397
19712 1 298 299 400
19713 3 298 299 381
19714 1 300 299 281
19715 1 300 299 282
19716 4 300 299 380
19717 3 300 299 397
19718 2 300 299 400
19719 3 300 299 381
19720 1 281 299 282
19721 3 281 299 380
19722 4 281 299 397
19723 3 281 299 400
19724 2 281 299 381
19725 3 282 299 380
19726 3 282 299 397
19727 1 282 299 400
19728 1 282 299 381
19729 1 380 299 397
19730 2 380 299 400
19731 1 380 299 381
19732 1 397 299 400
19733 2 397 299 381
19734 1 400 299 381
19735 1 198 300 199
19736 2 198 300 182
19737 1 198 300 119
19738 1 198 300 297
19739 2 198 300 298
19740 3 198 300 299
19741 3 198 300 281
19742 4 198 300 282
19743 1 198 300 217
19744 3 198 300 219
19745 3 198 300 201
19746 1 199 300 182
19747 2 199 300 119
19748 1 199 300 297
19749 3 199 300 298
19750 2 199 300 299
19751 1 199 300 281
19752 3 199 300 282
19753 3 199 300 217
19754 4 199 300 219
19755 3 199 300 201
19756 1 182 300 119
19757 3 182 300 297
19758 4 182 300 298
19759 3 182 300 299
19760 1 182 300 281
19761 2 182 300 282
19762 3 182 300 217
19763 3 182 300 219
19764 1 182 300 201
19765 3 119 300 297
19766 3 119 300 298
19767 4 119 300 299
19768 3 119 300 281
19769 3 119 300 282
19770 1 119 300 217
19771 2 119 300 219
19772 1 119 300 201
19773 1 297 300 298
19774 1 297 300 299
19775 2 297 300 281
19776 3 297 300 282
19777 2 297 300 217
19778 3 297 300 219
19779 4 297 300 201
19780 1 298 300 299
19781 3 298 300 281
19782 2 298 300 282
19783 1 298 300 217
19784 1 298 300 219
19785 3 298 300 201
19786 1 299 300 281
19787 1 299 300 282
19788 3 299 300 217
19789 2 299 300 219
19790 3 299 300 201
19791 1 281 300 282
19792 4 281 300 217
19793 3 281 300 219
19794 2 281 300 201
19795 3 282 300 217
19796 1 282 300 219
19797 1 282 300 201
19798 1 217 300 219
19799 2 217 300 201
19800 1 219 300 201
19801 1 282 301 219
19802 2 282 301 202
19803 1 282 301 203
19804 1 282 301 400
19805 2 282 301 382
19806 1 282 301 384
19807 3 282 301 319
19808 3 282 301 320
19809 4 282 301 302
19810 3 282 301 303
19811 3 282 301 304
19812 1 219 301 202
19813 2 219 301 203
19814 1 219 301 400
19815 3 219 301 382
19816 3 219 301 384
19817 2 219 301 319
19818 1 219 301 320
19819 3 219 301 302
19820 4 219 301 303
19821 3 219 301 304
19822 1 202 301 203
19823 3 202 301 400
19824 4 202 301 382
19825 3 202 301 384
19826 3 202 301 319
19827 1 202 301 320
19828 2 202 301 302
19829 3 202 301 303
19830 1 202 301 304
19831 3 203 301 400
19832 3 203 301 382
19833 1 203 301 384
19834 4 203 301 319
19835 3 203 301 320
19836 3 203 301 302
19837 2 203 301 303
19838 1 203 301 304
19839 1 400 301 382
19840 2 400 301 384
19841 1 400 301 319
19842 2 400 301 320
19843 3 400 301 302
19844 3 400 301 303
19845 4 400 301 304
19846 1 382 301 384
19847 1 382 301 319
19848 3 382 301 320
19849 2 382 301 302
19850 1 382 301 303
19851 3 382 301 304
19852 3 384 301 319
19853 4 384 301 320
19854 3 384 301 302
19855 1 384 301 303
19856 2 384 301 304
19857 1 319 301 320
19858 1 319 301 302
19859 2 319 301 303
19860 3 319 301 304
19861 1 320 301 302
19862 3 320 301 303
19863 2 320 301 304
19864 1 302 301 303
19865 1 302 301 304
19866 1 303 301 304
19867 1 319 302 320
19868 1 319 302 301
19869 2 319 302 303
19870 3 319 302 304
19871 2 319 302 339
19872 3 319 302 321
19873 4 319 302 323
19874 1 319 302 420
19875 1 319 302 401
19876 3 319 302 404
19877 3 319 302 421
19878 1 320 302 301
19879 3 320 302 303
19880 2 320 302 304
19881 1 320 302 339
19882 1 320 302 321
19883 3 320 302 323
19884 2 320 302 420
19885 3 320 302 401
19886 4 320 302 404
19887 3 320 302 421
19888 1 301 302 303
19889 1 301 302 304
19890 3 301 302 339
19891 2 301 302 321
19892 3 301 302 323
19893 3 301 302 420
19894 2 301 302 401
19895 3 301 302 404
19896 4 301 302 421
19897 1 303 302 304
19898 4 303 302 339
19899 3 303 302 321
19900 2 303 302 323
19901 3 303 302 420
19902 1 303 302 401
19903 1 303 302 404
19904 3 303 302 421
19905 3 304 302 339
19906 1 304 302 321
19907 1 304 302 323
19908 4 304 302 420
19909 3 304 302 401
19910 2 304 302 404
19911 3 304 302 421
19912 1 339 302 321
19913 2 339 302 323
19914 1 339 302 420
19915 3 339 302 401
19916 3 339 302 404
19917 1 339 302 421
19918 1 321 302 323
19919 3 321 302 420
19920 4 321 302 401
19921 3 321 302 404
19922 2 321 302 421
19923 3 323 302 420
19924 3 323 302 401
19925 1 323 302 404
19926 1 323 302 421
19927 1 420 302 401
19928 2 420 302 404
19929 1 420 302 421
19930 1 401 302 404
19931 2 401 302 421
19932 1 404 302 421
19933 1 382 303 384
19934 2 382 303 386
19935 1 382 303 301
19936 2 382 303 302
19937 3 382 303 304
19938 3 382 303 305
19939 4 382 303 306
19940 1 382 303 484
19941 1 382 303 401
19942 3 382 303 404
19943 3 382 303 405
19944 1 384 303 386
19945 1 384 303 301
19946 3 384 303 302
19947 2 384 303 304
19948 1 384 303 305
19949 3 384 303 306
19950 2 384 303 484
19951 3 384 303 401
19952 4 384 303 404
19953 3 384 303 405
19954 3 386 303 301
19955 4 386 303 302
19956 3 386 303 304
19957 1 386 303 305
19958 2 386 303 306
19959 1 386 303 484
19960 3 386 303 401
19961 3 386 303 404
19962 1 386 303 405
19963 1 301 303 302
19964 1 301 303 304
19965 2 301 303 305
19966 3 301 303 306
19967 3 301 303 484
19968 2 301 303 401
19969 3 301 303 404
19970 4 301 303 405
19971 1 302 303 304
19972 3 302 303 305
19973 2 302 303 306
19974 3 302 303 484
19975 1 302 303 401
19976 1 302 303 404
19977 3 302 303 405
19978 1 304 303 305
19979 1 304 303 306
19980 4 304 303 484
19981 3 304 303 401
19982 2 304 303 404
19983 3 304 303 405
19984 1 305 303 306
19985 3 305 303 484
19986 4 305 303 401
19987 3 305 303 404
19988 2 305 303 405
19989 3 306 303 484
19990 3 306 303 401
19991 1 306 303 404
19992 1 306 303 405
19993 1 484 303 401
19994 2 484 303 404
19995 1 484 303 405
19996 1 401 303 404
19997 2 401 303 405
19998 1 404 303 405
19999 1 202 304 203
20000 2 202 304 206
20001 1 202 304 223
20002 1 202 304 301
20003 2 202 304 302
20004 3 202 304 303
20005 3 202 304 305
20006 4 202 304 306
20007 1 202 304 321
20008 3 202 304 323
20009 3 202 304 325
20010 1 203 304 206
20011 2 203 304 223
20012 1 203 304 301
20013 3 203 304 302
20014 2 203 304 303
20015 1 203 304 305
20016 3 203 304 306
20017 3 203 304 321
20018 4 203 304 323
20019 3 203 304 325
20020 1 206 304 223
20021 3 206 304 301
20022 4 206 304 302
20023 3 206 304 303
20024 1 206 304 305
20025 2 206 304 306
20026 3 206 304 321
20027 3 206 304 323
20028 1 206 304 325
20029 3 223 304 301
20030 3 223 304 302
20031 4 223 304 303
20032 3 223 304 305
20033 3 223 304 306
20034 1 223 304 321
20035 2 223 304 323
20036 1 223 304 325
20037 1 301 304 302
20038 1 301 304 303
20039 2 301 304 305
20040 3 301 304 306
20041 2 301 304 321
20042 3 301 304 323
20043 4 301 304 325
20044 1 302 304 303
20045 3 302 304 305
20046 2 302 304 306
20047 1 302 304 321
20048 1 302 304 323
20049 3 302 304 325
20050 1 303 304 305
20051 1 303 304 306
20052 3 303 304 321
20053 2 303 304 323
20054 3 303 304 325
20055 1 305 304 306
20056 4 305 304 321
20057 3 305 304 323
20058 2 305 304 325
20059 3 306 304 321
20060 1 306 304 323
20061 1 306 304 325
20062 1 321 304 323
20063 2 321 304 325
20064 1 323 304 325
20065 1 286 305 203
20066 2 286 305 206
20067 1 286 305 207
20068 1 286 305 384
20069 2 286 305 386
20070 1 286 305 388
20071 3 286 305 303
20072 3 286 305 304
20073 4 286 305 306
20074 3 286 305 307
20075 3 286 305 308
20076 1 203 305 206
20077 2 203 305 207
20078 1 203 305 384
20079 3 203 305 386
20080 3 203 305 388
20081 2 203 305 303
20082 1 203 305 304
20083 3 203 305 306
20084 4 203 305 307
20085 3 203 305 308
20086 1 206 305 207
20087 3 206 305 384
20088 4 206 305 386
20089 3 206 305 388
20090 3 206 305 303
20091 1 206 305 304
20092 2 206 305 306
20093 3 206 305 307
20094 1 206 305 308
20095 3 207 305 384
20096 3 207 305 386
20097 1 207 305 388
20098 4 207 305 303
20099 3 207 305 304
20100 3 207 305 306
20101 2 207 305 307
20102 1 207 305 308
20103 1 384 305 386
20104 2 384 305 388
20105 1 384 305 303
20106 2 384 305 304
20107 3 384 305 306
20108 3 384 305 307
20109 4 384 305 308
20110 1 386 305 388
20111 1 386 305 303
20112 3 386 305 304
20113 2 386 305 306
20114 1 386 305 307
20115 3 386 305 308
20116 3 388 305 303
20117 4 388 305 304
20118 3 388 305 306
20119 1 388 305 307
20120 2 388 305 308
20121 1 303 305 304
20122 1 303 305 306
20123 2 303 305 307
20124 3 303 305 308
20125 1 304 305 306
20126 3 304 305 307
20127 2 304 305 308
20128 1 306 305 307
20129 1 306 305 308
20130 1 307 305 308
20131 1 303 306 304
20132 1 303 306 305
20133 2 303 306 307
20134 3 303 306 308
20135 2 303 306 323
20136 3 303 306 325
20137 4 303 306 327
20138 1 303 306 404
20139 1 303 306 405
20140 3 303 306 408
20141 3 303 306 425
20142 1 304 306 305
20143 3 304 306 307
20144 2 304 306 308
20145 1 304 306 323
20146 1 304 306 325
20147 3 304 306 327
20148 2 304 306 404
20149 3 304 306 405
20150 4 304 306 408
20151 3 304 306 425
20152 1 305 306 307
20153 1 305 306 308
20154 3 305 306 323
20155 2 305 306 325
20156 3 305 306 327
20157 3 305 306 404
20158 2 305 306 405
20159 3 305 306 408
20160 4 305 306 425
20161 1 307 306 308
20162 4 307 306 323
20163 3 307 306 325
20164 2 307 306 327
20165 3 307 306 404
20166 1 307 306 405
20167 1 307 306 408
20168 3 307 306 425
20169 3 308 306 323
20170 1 308 306 325
20171 1 308 306 327
20172 4 308 306 404
20173 3 308 306 405
20174 2 308 306 408
20175 3 308 306 425
20176 1 323 306 325
20177 2 323 306 327
20178 1 323 306 404
20179 3 323 306 405
20180 3 323 306 408
20181 1 323 306 425
20182 1 325 306 327
20183 3 325 306 404
20184 4 325 306 405
20185 3 325 306 408
20186 2 325 306 425
20187 3 327 306 404
20188 3 327 306 405
20189 1 327 306 408
20190 1 327 306 425
20191 1 404 306 405
20192 2 404 306 408
20193 1 404 306 425
20194 1 405 306 408
20195 2 405 306 425
20196 1 408 306 425
20197 1 386 307 388
20198 2 386 307 390
20199 1 386 307 305
20200 2 386 307 306
20201 3 386 307 308
20202 3 386 307 309
20203 4 386 307 310
20204 1 386 307 488
20205 1 386 307 405
20206 3 386 307 408
20207 3 386 307 409
20208 1 388 307 390
20209 1 388 307 305
20210 3 388 307 306
20211 2 388 307 308
20212 1 388 307 309
20213 3 388 307 310
20214 2 388 307 488
20215 3 388 307 405
20216 4 388 307 408
20217 3 388 307 409
20218 3 390 307 305
20219 4 390 307 306
20220 3 390 307 308
20221 1 390 307 309
20222 2 390 307 310
20223 1 390 307 488
20224 3 390 307 405
20225 3 390 307 408
20226 1 390 307 409
20227 1 305 307 306
20228 1 305 307 308
20229 2 305 307 309
20230 3 305 307 310
20231 3 305 307 488
20232 2 305 307 405
20233 3 305 307 408
20234 4 305 307 409
20235 1 306 307 308
20236 3 306 307 309
20237 2 306 307 310
20238 3 306 307 488
20239 1 306 307 405
20240 1 306 307 408
20241 3 306 307 409
20242 1 308 307 309
20243 1 308 307 310
20244 4 308 307 488
20245 3 308 307 405
20246 2 308 307 408
20247 3 308 307 409
20248 1 309 307 310
20249 3 309 307 488
20250 4 309 307 405
20251 3 309 307 408
20252 2 309 307 409
20253 3 310 307 488
20254 3 310 307 405
20255 1 310 307 408
20256 1 310 307 409
20257 1 488 307 405
20258 2 488 307 408
20259 1 488 307 409
20260 1 405 307 408
20261 2 405 307 409
20262 1 408 307 409
20263 1 206 308 207
20264 2 206 308 210
20265 1 206 308 227
20266 1 206 308 305
20267 2 206 308 306
20268 3 206 308 307
20269 3 206 308 309
20270 4 206 308 310
20271 1 206 308 325
20272 3 206 308 327
20273 3 206 308 329
20274 1 207 308 210
20275 2 207 308 227
20276 1 207 308 305
20277 3 207 308 306
20278 2 207 308 307
20279 1 207 308 309
20280 3 207 308 310
20281 3 207 308 325
20282 4 207 308 327
20283 3 207 308 329
20284 1 210 308 227
20285 3 210 308 305
20286 4 210 308 306
20287 3 210 308 307
20288 1 210 308 309
20289 2 210 308 310
20290 3 210 308 325
20291 3 210 308 327
20292 1 210 308 329
20293 3 227 308 305
20294 3 227 308 306
20295 4 227 308 307
20296 3 227 308 309
20297 3 227 308 310
20298 1 227 308 325
20299 2 227 308 327
20300 1 227 308 329
20301 1 305 308 306
20302 1 305 308 307
20303 2 305 308 309
20304 3 305 308 310
20305 2 305 308 325
20306 3 305 308 327
20307 4 305 308 329
20308 1 306 308 307
20309 3 306 308 309
20310 2 306 308 310
20311 1 306 308 325
20312 1 306 308 327
20313 3 306 308 329
20314 1 307 308 309
20315 1 307 308 310
20316 3 307 308 325
20317 2 307 308 327
20318 3 307 308 329
20319 1 309 308 310
20320 4 309 308 325
20321 3 309 308 327
20322 2 309 308 329
20323 3 310 308 325
20324 1 310 308 327
20325 1 310 308 329
20326 1 325 308 327
20327 2 325 308 329
20328 1 327 308 329
20329 1 290 309 207
20330 2 290 309 210
20331 1 290 309 211
20332 1 290 309 388
20333 2 290 309 390
20334 1 290 309 392
20335 3 290 309 307
20336 3 290 309 308
20337 4 290 309 310
20338 3 290 309 311
20339 3 290 309 312
20340 1 207 309 210
20341 2 207 309 211
20342 1 207 309 388
20343 3 207 309 390
20344 3 207 309 392
20345 2 207 309 307
20346 1 207 309 308
20347 3 207 309 310
20348 4 207 309 311
20349 3 207 309 312
20350 1 210 309 211
20351 3 210 309 388
20352 4 210 309 390
20353 3 210 309 392
20354 3 210 309 307
20355 1 210 309 308
20356 2 210 309 310
20357 3 210 309 311
20358 1 210 309 312
20359 3 211 309 388
20360 3 211 309 390
20361 1 211 309 392
20362 4 211 309 307
20363 3 211 309 308
20364 3 211 309 310
20365 2 211 309 311
20366 1 211 309 312
20367 1 388 309 390
20368 2 388 309 392
20369 1 388 309 307
20370 2 388 309 308
20371 3 388 309 310
20372 3 388 309 311
20373 4 388 309 312
20374 1 390 309 392
20375 1 390 309 307
20376 3 390 309 308
20377 2 390 309 310
20378 1 390 309 311
20379 3 390 309 312
20380 3 392 309 307
20381 4 392 309 308
20382 3 392 309 310
20383 1 392 309 311
20384 2 392 309 312
20385 1 307 309 308
20386 1 307 309 310
20387 2 307 309 311
20388 3 307 309 312
20389 1 308 309 310
20390 3 308 309 311
20391 2 308 309 312
20392 1 310 309 311
20393 1 310 309 312
20394 1 311 309 312
20395 1 307 310 308
20396 1 307 310 309
20397 2 307 310 311
20398 3 307 310 312
20399 2 307 310 327
20400 3 307 310 329
20401 4 307 310 331
20402 1 307 310 408
20403 1 307 310 409
20404 3 307 310 412
20405 3 307 310 429
20406 1 308 310 309
20407 3 308 310 311
20408 2 308 310 312
20409 1 308 310 327
20410 1 308 310 329
20411 3 308 310 331
20412 2 308 310 408
20413 3 308 310 409
20414 4 308 310 412
20415 3 308 310 429
20416 1 309 310 311
20417 1 309 310 312
20418 3 309 310 327
20419 2 309 310 329
20420 3 309 310 331
20421 3 309 310 408
20422 2 309 310 409
20423 3 309 310 412
20424 4 309 310 429
20425 1 311 310 312
20426 4 311 310 327
20427 3 311 310 329
20428 2 311 310 331
20429 3 311 310 408
20430 1 311 310 409
20431 1 311 310 412
20432 3 311 310 429
20433 3 312 310 327
20434 1 312 310 329
20435 1 312 310 331
20436 4 312 310 408
20437 3 312 310 409
20438 2 312 310 412
20439 3 312 310 429
20440 1 327 310 329
20441 2 327 310 331
20442 1 327 310 408
20443 3 327 310 409
20444 3 327 310 412
20445 1 327 310 429
20446 1 329 310 331
20447 3 329 310 408
20448 4 329 310 409
20449 3 329 310 412
20450 2 329 310 429
20451 3 331 310 408
20452 3 331 310 409
20453 1 331 310 412
20454 1 331 310 429
20455 1 408 310 409
20456 2 408 310 412
20457 1 408 310 429
20458 1 409 310 412
20459 2 409 310 429
20460 1 412 310 429
20461 1 390 311 392
20462 2 390 311 394
20463 1 390 311 309
20464 2 390 311 310
20465 3 390 311 312
20466 3 390 311 313
20467 4 390 311 314
20468 1 390 311 492
20469 1 390 311 409
20470 3 390 311 412
20471 3 390 311 413
20472 1 392 311 394
20473 1 392 311 309
20474 3 392 311 310
20475 2 392 311 312
20476 1 392 311 313
20477 3 392 311 314
20478 2 392 311 492
20479 3 392 311 409
20480 4 392 311 412
20481 3 392 311 413
20482 3 394 311 309
20483 4 394 311 310
20484 3 394 311 312
20485 1 394 311 313
20486 2 394 311 314
20487 1 394 311 492
20488 3 394 311 409
20489 3 394 311 412
20490 1 394 311 413
20491 1 309 311 310
20492 1 309 311 312
20493 2 309 311 313
20494 3 309 311 314
20495 3 309 311 492
20496 2 309 311 409
20497 3 309 311 412
20498 4 309 311 413
20499 1 310 311 312
20500 3 310 311 313
20501 2 310 311 314
20502 3 310 311 492
20503 1 310 311 409
20504 1 310 311 412
20505 3 310 311 413
20506 1 312 311 313
20507 1 312 311 314
20508 4 312 311 492
20509 3 312 311 409
20510 2 312 311 412
20511 3 312 311 413
20512 1 313 311 314
20513 3 313 311 492
20514 4 313 311 409
20515 3 313 311 412
20516 2 313 311 413
20517 3 314 311 492
20518 3 314 311 409
20519 1 314 311 412
20520 1 314 311 413
20521 1 492 311 409
20522 2 492 311 412
20523 1 492 311 413
20524 1 409 311 412
20525 2 409 311 413
20526 1 412 311 413
20527 1 210 312 211
20528 2 210 312 214
20529 1 210 312 231
20530 1 210 312 309
20531 2 210 312 310
20532 3 210 312 311
20533 3 210 312 313
20534 4 210 312 314
20535 1 210 312 329
20536 3 210 312 331
20537 3 210 312 333
20538 1 211 312 214
20539 2 211 312 231
20540 1 211 312 309
20541 3 211 312 310
20542 2 211 312 311
20543 1 211 312 313
20544 3 211 312 314
20545 3 211 312 329
20546 4 211 312 331
20547 3 211 312 333
20548 1 214 312 231
20549 3 214 312 309
20550 4 214 312 310
20551 3 214 312 311
20552 1 214 312 313
20553 2 214 312 314
20554 3 214 312 329
20555 3 214 312 331
20556 1 214 312 333
20557 3 231 312 309
20558 3 231 312 310
20559 4 231 312 311
20560 3 231 312 313
20561 3 231 312 314
20562 1 231 312 329
20563 2 231 312 331
20564 1 231 312 333
20565 1 309 312 310
20566 1 309 312 311
20567 2 309 312 313
20568 3 309 312 314
20569 2 309 312 329
20570 3 309 312 331
20571 4 309 312 333
20572 1 310 312 311
20573 3 310 312 313
20574 2 310 312 314
20575 1 310 312 329
20576 1 310 312 331
20577 3 310 312 333
20578 1 311 312 313
20579 1 311 312 314
20580 3 311 312 329
20581 2 311 312 331
20582 3 311 312 333
20583 1 313 312 314
20584 4 313 312 329
20585 3 313 312 331
20586 2 313 312 333
20587 3 314 312 329
20588 1 314 312 331
20589 1 314 312 333
20590 1 329 312 331
20591 2 329 312 333
20592 1 331 312 333
20593 1 294 313 211
20594 2 294 313 214
20595 1 294 313 215
20596 1 294 313 392
20597 2 294 313 394
20598 1 294 313 396
20599 3 294 313 311
20600 3 294 313 312
20601 4 294 313 314
20602 3 294 313 315
20603 3 294 313 316
20604 1 211 313 214
20605 2 211 313 215
20606 1 211 313 392
20607 3 211 313 394
20608 3 211 313 396
20609 2 211 313 311
20610 1 211 313 312
20611 3 211 313 314
20612 4 211 313 315
20613 3 211 313 316
20614 1 214 313 215
20615 3 214 313 392
20616 4 214 313 394
20617 3 214 313 396
20618 3 214 313 311
20619 1 214 313 312
20620 2 214 313 314
20621 3 214 313 315
20622 1 214 313 316
20623 3 215 313 392
20624 3 215 313 394
20625 1 215 313 396
20626 4 215 313 311
20627 3 215 313 312
20628 3 215 313 314
20629 2 215 313 315
20630 1 215 313 316
20631 1 392 313 394
20632 2 392 313 396
20633 1 392 313 311
20634 2 392 313 312
20635 3 392 313 314
20636 3 392 313 315
20637 4 392 313 316
20638 1 394 313 396
20639 1 394 313 311
20640 3 394 313 312
20641 2 394 313 314
20642 1 394 313 315
20643 3 394 313 316
20644 3 396 313 311
20645 4 396 313 312
20646 3 396 313 314
20647 1 396 313 315
20648 2 396 313 316
20649 1 311 313 312
20650 1 311 313 314
20651 2 311 313 315
20652 3 311 313 316
20653 1 312 313 314
20654 3 312 313 315
20655 2 312 313 316
20656 1 314 313 315
20657 1 314 313 316
20658 1 315 313 316
20659 1 311 314 312
20660 1 311 314 313
20661 2 311 314 315
20662 3 311 314 316
20663 2 311 314 331
20664 3 311 314 333
20665 4 311 314 335
20666 1 311 314 412
20667 1 311 314 413
20668 3 311 314 416
20669 3 311 314 433
20670 1 312 314 313
20671 3 312 314 315
20672 2 312 314 316
20673 1 312 314 331
20674 1 312 314 333
20675 3 312 314 335
20676 2 312 314 412
20677 3 312 314 413
20678 4 312 314 416
20679 3 312 314 433
20680 1 313 314 315
20681 1 313 314 316
20682 3 313 314 331
20683 2 313 314 333
20684 3 313 314 335
20685 3 313 314 412
20686 2 313 314 413
20687 3 313 314 416
20688 4 313 314 433
20689 1 315 314 316
20690 4 315 314 331
20691 3 315 314 333
20692 2 315 314 335
20693 3 315 314 412
20694 1 315 314 413
20695 1 315 314 416
20696 3 315 314 433
20697 3 316 314 331
20698 1 316 314 333
20699 1 316 314 335
20700 4 316 314 412
20701 3 316 314 413
20702 2 316 314 416
20703 3 316 314 433
20704 1 331 314 333
20705 2 331 314 335
20706 1 331 314 412
20707 3 331 314 413
20708 3 331 314 416
20709 1 331 314 433
20710 1 333 314 335
20711 3 333 314 412
20712 4 333 314 413
20713 3 333 314 416
20714 2 333 314 433
20715 3 335 314 412
20716 3 335 314 413
20717 1 335 314 416
20718 1 335 314 433
20719 1 412 314 413
20720 2 412 314 416
20721 1 412 314 433
20722 1 413 314 416
20723 2 413 314 433
20724 1 416 314 433
20725 1 394 315 396
20726 2 394 315 398
20727 1 394 315 313
20728 2 394 315 314
20729 3 394 315 316
20730 3 394 315 317
20731 4 394 315 318
20732 1 394 315 496
20733 1 394 315 413
20734 3 394 315 416
20735 3 394 315 417
20736 1 396 315 398
20737 1 396 315 313
20738 3 396 315 314
20739 2 396 315 316
20740 1 396 315 317
20741 3 396 315 318
20742 2 396 315 496
20743 3 396 315 413
20744 4 396 315 416
20745 3 396 315 417
20746 3 398 315 313
20747 4 398 315 314
20748 3 398 315 316
20749 1 398 315 317
20750 2 398 315 318
20751 1 398 315 496
20752 3 398 315 413
20753 3 398 315 416
20754 1 398 315 417
20755 1 313 315 314
20756 1 313 315 316
20757 2 313 315 317
20758 3 313 315 318
20759 3 313 315 496
20760 2 313 315 413
20761 3 313 315 416
20762 4 313 315 417
20763 1 314 315 316
20764 3 314 315 317
20765 2 314 315 318
20766 3 314 315 496
20767 1 314 315 413
20768 1 314 315 416
20769 3 314 315 417
20770 1 316 315 317
20771 1 316 315 318
20772 4 316 315 496
20773 3 316 315 413
20774 2 316 315 416
20775 3 316 315 417
20776 1 317 315 318
20777 3 317 315 496
20778 4 317 315 413
20779 3 317 315 416
20780 2 317 315 417
20781 3 318 315 496
20782 3 318 315 413
20783 1 318 315 416
20784 1 318 315 417
20785 1 496 315 413
20786 2 496 315 416
20787 1 496 315 417
20788 1 413 315 416
20789 2 413 315 417
20790 1 416 315 417
20791 1 214 316 215
20792 2 214 316 218
20793 1 214 316 235
20794 1 214 316 313
20795 2 214 316 314
20796 3 214 316 315
20797 3 214 316 317
20798 4 214 316 318
20799 1 214 316 333
20800 3 214 316 335
20801 3 214 316 337
20802 1 215 316 218
20803 2 215 316 235
20804 1 215 316 313
20805 3 215 316 314
20806 2 215 316 315
20807 1 215 316 317
20808 3 215 316 318
20809 3 215 316 333
20810 4 215 316 335
20811 3 215 316 337
20812 1 218 316 235
20813 3 218 316 313
20814 4 218 316 314
20815 3 218 316 315
20816 1 218 316 317
20817 2 218 316 318
20818 3 218 316 333
20819 3 218 316 335
20820 1 218 316 337
20821 3 235 316 313
20822 3 235 316 314
20823 4 235 316 315
20824 3 235 316 317
20825 3 235 316 318
20826 1 235 316 333
20827 2 235 316 335
20828 1 235 316 337
20829 1 313 316 314
20830 1 313 316 315
20831 2 313 316 317
20832 3 313 316 318
20833 2 313 316 333
20834 3 313 316 335
20835 4 313 316 337
20836 1 314 316 315
20837 3 314 316 317
20838 2 314 316 318
20839 1 314 316 333
20840 1 314 316 335
20841 3 314 316 337
20842 1 315 316 317
20843 1 315 316 318
20844 3 315 316 333
20845 2 315 316 335
20846 3 315 316 337
20847 1 317 316 318
20848 4 317 316 333
20849 3 317 316 335
20850 2 317 316 337
20851 3 318 316 333
20852 1 318 316 335
20853 1 318 316 337
20854 1 333 316 335
20855 2 333 316 337
20856 1 335 316 337
20857 1 298 317 215
20858 2 298 317 218
20859 1 298 317 219
20860 1 298 317 396
20861 2 298 317 398
20862 1 298 317 400
20863 3 298 317 315
20864 3 298 317 316
20865 4 298 317 318
20866 3 298 317 319
20867 3 298 317 320
20868 1 215 317 218
20869 2 215 317 219
20870 1 215 317 396
20871 3 215 317 398
20872 3 215 317 400
20873 2 215 317 315
20874 1 215 317 316
20875 3 215 317 318
20876 4 215 317 319
20877 3 215 317 320
20878 1 218 317 219
20879 3 218 317 396
20880 4 218 317 398
20881 3 218 317 400
20882 3 218 317 315
20883 1 218 317 316
20884 2 218 317 318
20885 3 218 317 319
20886 1 218 317 320
20887 3 219 317 396
20888 3 219 317 398
20889 1 219 317 400
20890 4 219 317 315
20891 3 219 317 316
20892 3 219 317 318
20893 2 219 317 319
20894 1 219 317 320
20895 1 396 317 398
20896 2 396 317 400
20897 1 396 317 315
20898 2 396 317 316
20899 3 396 317 318
20900 3 396 317 319
20901 4 396 317 320
20902 1 398 317 400
20903 1 398 317 315
20904 3 398 317 316
20905 2 398 317 318
20906 1 398 317 319
20907 3 398 317 320
20908 3 400 317 315
20909 4 400 317 316
20910 3 400 317 318
20911 1 400 317 319
20912 2 400 317 320
20913 1 315 317 316
20914 1 315 317 318
20915 2 315 317 319
20916 3 315 317 320
20917 1 316 317 318
20918 3 316 317 319
20919 2 316 317 320
20920 1 318 317 319
20921 1 318 317 320
20922 1 319 317 320
20923 1 315 318 316
20924 1 315 318 317
20925 2 315 318 319
20926 3 315 318 320
20927 2 315 318 335
20928 3 315 318 337
20929 4 315 318 339
20930 1 315 318 416
20931 1 315 318 417
20932 3 315 318 420
20933 3 315 318 437
20934 1 316 318 317
20935 3 316 318 319
20936 2 316 318 320
20937 1 316 318 335
20938 1 316 318 337
20939 3 316 318 339
20940 2 316 318 416
20941 3 316 318 417
20942 4 316 318 420
20943 3 316 318 437
20944 1 317 318 319
20945 1 317 318 320
20946 3 317 318 335
20947 2 317 318 337
20948 3 317 318 339
20949 3 317 318 416
20950 2 317 318 417
20951 3 317 318 420
20952 4 317 318 437
20953 1 319 318 320
20954 4 319 318 335
20955 3 319 318 337
20956 2 319 318 339
20957 3 319 318 416
20958 1 319 318 417
20959 1 319 318 420
20960 3 319 318 437
20961 3 320 318 335
20962 1 320 318 337
20963 1 320 318 339
20964 4 320 318 416
20965 3 320 318 417
20966 2 320 318 420
20967 3 320 318 437
20968 1 335 318 337
20969 2 335 318 339
20970 1 335 318 416
20971 3 335 318 417
20972 3 335 318 420
20973 1 335 318 437
20974 1 337 318 339
20975 3 337 318 416
20976 4 337 318 417
20977 3 337 318 420
20978 2 337 318 437
20979 3 339 318 416
20980 3 339 318 417
20981 1 339 318 420
20982 1 339 318 437
20983 1 416 318 417
20984 2 416 318 420
20985 1 416 318 437
20986 1 417 318 420
20987 2 417 318 437
20988 1 420 318 437
20989 1 398 319 400
20990 2 398 319 382
20991 1 398 319 317
20992 2 398 319 318
20993 3 398 319 320
20994 3 398 319 301
20995 4 398 319 302
20996 1 398 319 500
20997 1 398 319 417
20998 3 398 319 420
20999 3 398 319 401
21000 1 400 319 382
21001 1 400 319 317
21002 3 400 319 318
21003 2 400 319 320
21004 1 400 319 301
21005 3 400 319 302
21006 2 400 319 500
21007 3 400 319 417
21008 4 400 319 420
21009 3 400 319 401
21010 3 382 319 317
21011 4 382 319 318
21012 3 382 319 320
21013 1 382 319 301
21014 2 382 319 302
21015 1 382 319 500
21016 3 382 319 417
21017 3 382 319 420
21018 1 382 319 401
21019 1 317 319 318
21020 1 317 319 320
21021 2 317 319 301
21022 3 317 319 302
21023 3 317 319 500
21024 2 317 319 417
21025 3 317 319 420
21026 4 317 319 401
21027 1 318 319 320
21028 3 318 319 301
21029 2 318 319 302
21030 3 318 319 500
21031 1 318 319 417
21032 1 318 319 420
21033 3 318 319 401
21034 1 320 319 301
21035 1 320 319 302
21036 4 320 319 500
21037 3 320 319 417
21038 2 320 319 420
21039 3 320 319 401
21040 1 301 319 302
21041 3 301 319 500
21042 4 301 319 417
21043 3 301 319 420
21044 2 301 319 401
21045 3 302 319 500
21046 3 302 319 417
21047 1 302 319 420
21048 1 302 319 401
21049 1 500 319 417
21050 2 500 319 420
21051 1 500 319 401
21052 1 417 319 420
21053 2 417 319 401
21054 1 420 319 401
21055 1 218 320 219
21056 2 218 320 202
21057 1 218 320 239
21058 1 218 320 317
21059 2 218 320 318
21060 3 218 320 319
21061 3 218 320 301
21062 4 218 320 302
21063 1 218 320 337
21064 3 218 320 339
21065 3 218 320 321
21066 1 219 320 202
21067 2 219 320 239
21068 1 219 320 317
21069 3 219 320 318
21070 2 219 320 319
21071 1 219 320 301
21072 3 219 320 302
21073 3 219 320 337
21074 4 219 320 339
21075 3 219 320 321
21076 1 202 320 239
21077 3 202 320 317
21078 4 202 320 318
21079 3 202 320 319
21080 1 202 320 301
21081 2 202 320 302
21082 3 202 320 337
21083 3 202 320 339
21084 1 202 320 321
21085 3 239 320 317
21086 3 239 320 318
21087 4 239 320 319
21088 3 239 320 301
21089 3 239 320 302
21090 1 239 320 337
21091 2 239 320 339
21092 1 239 320 321
21093 1 317 320 318
21094 1 317 320 319
21095 2 317 320 301
21096 3 317 320 302
21097 2 317 320 337
21098 3 317 320 339
21099 4 317 320 321
21100 1 318 320 319
21101 3 318 320 301
21102 2 318 320 302
21103 1 318 320 337
21104 1 318 320 339
21105 3 318 320 321
21106 1 319 320 301
21107 1 319 320 302
21108 3 319 320 337
21109 2 319 320 339
21110 3 319 320 321
21111 1 301 320 302
21112 4 301 320 337
21113 3 301 320 339
21114 2 301 320 321
21115 3 302 320 337
21116 1 302 320 339
21117 1 302 320 321
21118 1 337 320 339
21119 2 337 320 321
21120 1 339 320 321
21121 1 202 321 239
21122 2 202 321 222
21123 1 202 321 223
21124 1 202 321 320
21125 2 202 321 302
21126 1 202 321 304
21127 3 202 321 339
21128 3 202 321 340
21129 4 202 321 322
21130 3 202 321 323
21131 3 202 321 324
21132 1 239 321 222
21133 2 239 321 223
21134 1 239 321 320
21135 3 239 321 302
21136 3 239 321 304
21137 2 239 321 339
21138 1 239 321 340
21139 3 239 321 322
21140 4 239 321 323
21141 3 239 321 324
21142 1 222 321 223
21143 3 222 321 320
21144 4 222 321 302
21145 3 222 321 304
21146 3 222 321 339
21147 1 222 321 340
21148 2 222 321 322
21149 3 222 321 323
21150 1 222 321 324
21151 3 223 321 320
21152 3 223 321 302
21153 1 223 321 304
21154 4 223 321 339
21155 3 223 321 340
21156 3 223 321 322
21157 2 223 321 323
21158 1 223 321 324
21159 1 320 321 302
21160 2 320 321 304
21161 1 320 321 339
21162 2 320 321 340
21163 3 320 321 322
21164 3 320 321 323
21165 4 320 321 324
21166 1 302 321 304
21167 1 302 321 339
21168 3 302 321 340
21169 2 302 321 322
21170 1 302 321 323
21171 3 302 321 324
21172 3 304 321 339
21173 4 304 321 340
21174 3 304 321 322
21175 1 304 321 323
21176 2 304 321 324
21177 1 339 321 340
21178 1 339 321 322
21179 2 339 321 323
21180 3 339 321 324
21181 1 340 321 322
21182 3 340 321 323
21183 2 340 321 324
21184 1 322 321 323
21185 1 322 321 324
21186 1 323 321 324
21187 1 339 322 340
21188 1 339 322 321
21189 2 339 322 323
21190 3 339 322 324
21191 2 339 322 359
21192 3 339 322 341
21193 4 339 322 343
21194 1 339 322 440
21195 1 339 322 421
21196 3 339 322 424
21197 3 339 322 441
21198 1 340 322 321
21199 3 340 322 323
21200 2 340 322 324
21201 1 340 322 359
21202 1 340 322 341
21203 3 340 322 343
21204 2 340 322 440
21205 3 340 322 421
21206 4 340 322 424
21207 3 340 322 441
21208 1 321 322 323
21209 1 321 322 324
21210 3 321 322 359
21211 2 321 322 341
21212 3 321 322 343
21213 3 321 322 440
21214 2 321 322 421
21215 3 321 322 424
21216 4 321 322 441
21217 1 323 322 324
21218 4 323 322 359
21219 3 323 322 341
21220 2 323 322 343
21221 3 323 322 440
21222 1 323 322 421
21223 1 323 322 424
21224 3 323 322 441
21225 3 324 322 359
21226 1 324 322 341
21227 1 324 322 343
21228 4 324 322 440
21229 3 324 322 421
21230 2 324 322 424
21231 3 324 322 441
21232 1 359 322 341
21233 2 359 322 343
21234 1 359 322 440
21235 3 359 322 421
21236 3 359 322 424
21237 1 359 322 441
21238 1 341 322 343
21239 3 341 322 440
21240 4 341 322 421
21241 3 341 322 424
21242 2 341 322 441
21243 3 343 322 440
21244 3 343 322 421
21245 1 343 322 424
21246 1 343 322 441
21247 1 440 322 421
21248 2 440 322 424
21249 1 440 322 441
21250 1 421 322 424
21251 2 421 322 441
21252 1 424 322 441
21253 1 302 323 304
21254 2 302 323 306
21255 1 302 323 321
21256 2 302 323 322
21257 3 302 323 324
21258 3 302 323 325
21259 4 302 323 326
21260 1 302 323 404
21261 1 302 323 421
21262 3 302 323 424
21263 3 302 323 425
21264 1 304 323 306
21265 1 304 323 321
21266 3 304 323 322
21267 2 304 323 324
21268 1 304 323 325
21269 3 304 323 326
21270 2 304 323 404
21271 3 304 323 421
21272 4 304 323 424
21273 3 304 323 425
21274 3 306 323 321
21275 4 306 323 322
21276 3 306 323 324
21277 1 306 323 325
21278 2 306 323 326
21279 1 306 323 404
21280 3 306 323 421
21281 3 306 323 424
21282 1 306 323 425
21283 1 321 323 322
21284 1 321 323 324
21285 2 321 323 325
21286 3 321 323 326
21287 3 321 323 404
21288 2 321 323 421
21289 3 321 323 424
21290 4 321 323 425
21291 1 322 323 324
21292 3 322 323 325
21293 2 322 323 326
21294 3 322 323 404
21295 1 322 323 421
21296 1 322 323 424
21297 3 322 323 425
21298 1 324 323 325
21299 1 324 323 326
21300 4 324 323 404
21301 3 324 323 421
21302 2 324 323 424
21303 3 324 323 425
21304 1 325 323 326
21305 3 325 323 404
21306 4 325 323 421
21307 3 325 323 424
21308 2 325 323 425
21309 3 326 323 404
21310 3 326 323 421
21311 1 326 323 424
21312 1 326 323 425
21313 1 404 323 421
21314 2 404 323 424
21315 1 404 323 425
21316 1 421 323 424
21317 2 421 323 425
21318 1 424 323 425
21319 1 222 324 223
21320 2 222 324 226
21321 1 222 324 243
21322 1 222 324 321
21323 2 222 324 322
21324 3 222 324 323
21325 3 222 324 325
21326 4 222 324 326
21327 1 222 324 341
21328 3 222 324 343
21329 3 222 324 345
21330 1 223 324 226
21331 2 223 324 243
21332 1 223 324 321
21333 3 223 324 322
21334 2 223 324 323
21335 1 223 324 325
21336 3 223 324 326
21337 3 223 324 341
21338 4 223 324 343
21339 3 223 324 345
21340 1 226 324 243
21341 3 226 324 321
21342 4 226 324 322
21343 3 226 324 323
21344 1 226 324 325
21345 2 226 324 326
21346 3 226 324 341
21347 3 226 324 343
21348 1 226 324 345
21349 3 243 324 321
21350 3 243 324 322
21351 4 243 324 323
21352 3 243 324 325
21353 3 243 324 326
21354 1 243 324 341
21355 2 243 324 343
21356 1 243 324 345
21357 1 321 324 322
21358 1 321 324 323
21359 2 321 324 325
21360 3 321 324 326
21361 2 321 324 341
21362 3 321 324 343
21363 4 321 324 345
21364 1 322 324 323
21365 3 322 324 325
21366 2 322 324 326
21367 1 322 324 341
21368 1 322 324 343
21369 3 322 324 345
21370 1 323 324 325
21371 1 323 324 326
21372 3 323 324 341
21373 2 323 324 343
21374 3 323 324 345
21375 1 325 324 326
21376 4 325 324 341
21377 3 325 324 343
21378 2 325 324 345
21379 3 326 324 341
21380 1 326 324 343
21381 1 326 324 345
21382 1 341 324 343
21383 2 341 324 345
21384 1 343 324 345
21385 1 206 325 223
21386 2 206 325 226
21387 1 206 325 227
21388 1 206 325 304
21389 2 206 325 306
21390 1 206 325 308
21391 3 206 325 323
21392 3 206 325 324
21393 4 206 325 326
21394 3 206 325 327
21395 3 206 325 328
21396 1 223 325 226
21397 2 223 325 227
21398 1 223 325 304
21399 3 223 325 306
21400 3 223 325 308
21401 2 223 325 323
21402 1 223 325 324
21403 3 223 325 326
21404 4 223 325 327
21405 3 223 325 328
21406 1 226 325 227
21407 3 226 325 304
21408 4 226 325 306
21409 3 226 325 308
21410 3 226 325 323
21411 1 226 325 324
21412 2 226 325 326
21413 3 226 325 327
21414 1 226 325 328
21415 3 227 325 304
21416 3 227 325 306
21417 1 227 325 308
21418 4 227 325 323
21419 3 227 325 324
21420 3 227 325 326
21421 2 227 325 327
21422 1 227 325 328
21423 1 304 325 306
21424 2 304 325 308
21425 1 304 325 323
21426 2 304 325 324
21427 3 304 325 326
21428 3 304 325 327
21429 4 304 325 328
21430 1 306 325 308
21431 1 306 325 323
21432 3 306 325 324
21433 2 306 325 326
21434 1 306 325 327
21435 3 306 325 328
21436 3 308 325 323
21437 4 308 325 324
21438 3 308 325 326
21439 1 308 325 327
21440 2 308 325 328
21441 1 323 325 324
21442 1 323 325 326
21443 2 323 325 327
21444 3 323 325 328
21445 1 324 325 326
21446 3 324 325 327
21447 2 324 325 328
21448 1 326 325 327
21449 1 326 325 328
21450 1 327 325 328
21451 1 323 326 324
21452 1 323 326 325
21453 2 323 326 327
21454 3 323 326 328
21455 2 323 326 343
21456 3 323 326 345
21457 4 323 326 347
21458 1 323 326 424
21459 1 323 326 425
21460 3 323 326 428
21461 3 323 326 445
21462 1 324 326 325
21463 3 324 326 327
21464 2 324 326 328
21465 1 324 326 343
21466 1 324 326 345
21467 3 324 326 347
21468 2 324 326 424
21469 3 324 326 425
21470 4 324 326 428
21471 3 324 326 445
21472 1 325 326 327
21473 1 325 326 328
21474 3 325 326 343
21475 2 325 326 345
21476 3 325 326 347
21477 3 325 326 424
21478 2 325 326 425
21479 3 325 326 428
21480 4 325 326 445
21481 1 327 326 328
21482 4 327 326 343
21483 3 327 326 345
21484 2 327 326 347
21485 3 327 326 424
21486 1 327 326 425
21487 1 327 326 428
21488 3 327 326 445
21489 3 328 326 343
21490 1 328 326 345
21491 1 328 326 347
21492 4 328 326 424
21493 3 328 326 425
21494 2 328 326 428
21495 3 328 326 445
21496 1 343 326 345
21497 2 343 326 347
21498 1 343 326 424
21499 3 343 326 425
21500 3 343 326 428
21501 1 343 326 445
21502 1 345 326 347
21503 3 345 326 424
21504 4 345 326 425
21505 3 345 326 428
21506 2 345 326 445
21507 3 347 326 424
21508 3 347 326 425
21509 1 347 326 428
21510 1 347 326 445
21511 1 424 326 425
21512 2 424 326 428
21513 1 424 326 445
21514 1 425 326 428
21515 2 425 326 445
21516 1 428 326 445
21517 1 306 327 308
21518 2 306 327 310
21519 1 306 327 325
21520 2 306 327 326
21521 3 306 327 328
21522 3 306 327 329
21523 4 306 327 330
21524 1 306 327 408
21525 1 306 327 425
21526 3 306 327 428
21527 3 306 327 429
21528 1 308 327 310
21529 1 308 327 325
21530 3 308 327 326
21531 2 308 327 328
21532 1 308 327 329
21533 3 308 327 330
21534 2 308 327 408
21535 3 308 327 425
21536 4 308 327 428
21537 3 308 327 429
21538 3 310 327 325
21539 4 310 327 326
21540 3 310 327 328
21541 1 310 327 329
21542 2 310 327 330
21543 1 310 327 408
21544 3 310 327 425
21545 3 310 327 428
21546 1 310 327 429
21547 1 325 327 326
21548 1 325 327 328
21549 2 325 327 329
21550 3 325 327 330
21551 3 325 327 408
21552 2 325 327 425
21553 3 325 327 428
21554 4 325 327 429
21555 1 326 327 328
21556 3 326 327 329
21557 2 326 327 330
21558 3 326 327 408
21559 1 326 327 425
21560 1 326 327 428
21561 3 326 327 429
21562 1 328 327 329
21563 1 328 327 330
21564 4 328 327 408
21565 3 328 327 425
21566 2 328 327 428
21567 3 328 327 429
21568 1 329 327 330
21569 3 329 327 408
21570 4 329 327 425
21571 3 329 327 428
21572 2 329 327 429
21573 3 330 327 408
21574 3 330 327 425
21575 1 330 327 428
21576 1 330 327 429
21577 1 408 327 425
21578 2 408 327 428
21579 1 408 327 429
21580 1 425 327 428
21581 2 425 327 429
21582 1 428 327 429
21583 1 226 328 227
21584 2 226 328 230
21585 1 226 328 247
21586 1 226 328 325
21587 2 226 328 326
21588 3 226 328 327
21589 3 226 328 329
21590 4 226 328 330
21591 1 226 328 345
21592 3 226 328 347
21593 3 226 328 349
21594 1 227 328 230
21595 2 227 328 247
21596 1 227 328 325
21597 3 227 328 326
21598 2 227 328 327
21599 1 227 328 329
21600 3 227 328 330
21601 3 227 328 345
21602 4 227 328 347
21603 3 227 328 349
21604 1 230 328 247
21605 3 230 328 325
21606 4 230 328 326
21607 3 230 328 327
21608 1 230 328 329
21609 2 230 328 330
21610 3 230 328 345
21611 3 230 328 347
21612 1 230 328 349
21613 3 247 328 325
21614 3 247 328 326
21615 4 247 328 327
21616 3 247 328 329
21617 3 247 328 330
21618 1 247 328 345
21619 2 247 328 347
21620 1 247 328 349
21621 1 325 328 326
21622 1 325 328 327
21623 2 325 328 329
21624 3 325 328 330
21625 2 325 328 345
21626 3 325 328 347
21627 4 325 328 349
21628 1 326 328 327
21629 3 326 328 329
21630 2 326 328 330
21631 1 326 328 345
21632 1 326 328 347
21633 3 326 328 349
21634 1 327 328 329
21635 1 327 328 330
21636 3 327 328 345
21637 2 327 328 347
21638 3 327 328 349
21639 1 329 328 330
21640 4 329 328 345
21641 3 329 328 347
21642 2 329 328 349
21643 3 330 328 345
21644 1 330 328 347
21645 1 330 328 349
21646 1 345 328 347
21647 2 345 328 349
21648 1 347 328 349
21649 1 210 329 227
21650 2 210 329 230
21651 1 210 329 231
21652 1 210 329 308
21653 2 210 329 310
21654 1 210 329 312
21655 3 210 329 327
21656 3 210 329 328
21657 4 210 329 330
21658 3 210 329 331
21659 3 210 329 332
21660 1 227 329 230
21661 2 227 329 231
21662 1 227 329 308
21663 3 227 329 310
21664 3 227 329 312
21665 2 227 329 327
21666 1 227 329 328
21667 3 227 329 330
21668 4 227 329 331
21669 3 227 329 332
21670 1 230 329 231
21671 3 230 329 308
21672 4 230 329 310
21673 3 230 329 312
21674 3 230 329 327
21675 1 230 329 328
21676 2 230 329 330
21677 3 230 329 331
21678 1 230 329 332
21679 3 231 329 308
21680 3 231 329 310
21681 1 231 329 312
21682 4 231 329 327
21683 3 231 329 328
21684 3 231 329 330
21685 2 231 329 331
21686 1 231 329 332
21687 1 308 329 310
21688 2 308 329 312
21689 1 308 329 327
21690 2 308 329 328
21691 3 308 329 330
21692 3 308 329 331
21693 4 308 329 332
21694 1 310 329 312
21695 1 310 329 327
21696 3 310 329 328
21697 2 310 329 330
21698 1 310 329 331
21699 3 310 329 332
21700 3 312 329 327
21701 4 312 329 328
21702 3 312 329 330
21703 1 312 329 331
21704 2 312 329 332
21705 1 327 329 328
21706 1 327 329 330
21707 2 327 329 331
21708 3 327 329 332
21709 1 328 329 330
21710 3 328 329 331
21711 2 328 329 332
21712 1 330 329 331
21713 1 330 329 332
21714 1 331 329 332
21715 1 327 330 328
21716 1 327 330 329
21717 2 327 330 331
21718 3 327 330 332
21719 2 327 330 347
21720 3 327 330 349
21721 4 327 330 351
21722 1 327 330 428
21723 1 327 330 429
21724 3 327 330 432
21725 3 327 330 449
21726 1 328 330 329
21727 3 328 330 331
21728 2 328 330 332
21729 1 328 330 347
21730 1 328 330 349
21731 3 328 330 351
21732 2 328 330 428
21733 3 328 330 429
21734 4 328 330 432
21735 3 328 330 449
21736 1 329 330 331
21737 1 329 330 332
21738 3 329 330 347
21739 2 329 330 349
21740 3 329 330 351
21741 3 329 330 428
21742 2 329 330 429
21743 3 329 330 432
21744 4 329 330 449
21745 1 331 330 332
21746 4 331 330 347
21747 3 331 330 349
21748 2 331 330 351
21749 3 331 330 428
21750 1 331 330 429
21751 1 331 330 432
21752 3 331 330 449
21753 3 332 330 347
21754 1 332 330 349
21755 1 332 330 351
21756 4 332 330 428
21757 3 332 330 429
21758 2 332 330 432
21759 3 332 330 449
21760 1 347 330 349
21761 2 347 330 351
21762 1 347 330 428
21763 3 347 330 429
21764 3 347 330 432
21765 1 347 330 449
21766 1 349 330 351
21767 3 349 330 428
21768 4 349 330 429
21769 3 349 330 432
21770 2 349 330 449
21771 3 351 330 428
21772 3 351 330 429
21773 1 351 330 432
21774 1 351 330 449
21775 1 428 330 429
21776 2 428 330 432
21777 1 428 330 449
21778 1 429 330 432
21779 2 429 330 449
21780 1 432 330 449
21781 1 310 331 312
21782 2 310 331 314
21783 1 310 331 329
21784 2 310 331 330
21785 3 310 331 332
21786 3 310 331 333
21787 4 310 331 334
21788 1 310 331 412
21789 1 310 331 429
21790 3 310 331 432
21791 3 310 331 433
21792 1 312 331 314
21793 1 312 331 329
21794 3 312 331 330
21795 2 312 331 332
21796 1 312 331 333
21797 3 312 331 334
21798 2 312 331 412
21799 3 312 331 429
21800 4 312 331 432
21801 3 312 331 433
21802 3 314 331 329
21803 4 314 331 330
21804 3 314 331 332
21805 1 314 331 333
21806 2 314 331 334
21807 1 314 331 412
21808 3 314 331 429
21809 3 314 331 432
21810 1 314 331 433
21811 1 329 331 330
21812 1 329 331 332
21813 2 329 331 333
21814 3 329 331 334
21815 3 329 331 412
21816 2 329 331 429
21817 3 329 331 432
21818 4 329 331 433
21819 1 330 331 332
21820 3 330 331 333
21821 2 330 331 334
21822 3 330 331 412
21823 1 330 331 429
21824 1 330 331 432
21825 3 330 331 433
21826 1 332 331 333
21827 1 332 331 334
21828 4 332 331 412
21829 3 332 331 429
21830 2 332 331 432
21831 3 332 331 433
21832 1 333 331 334
21833 3 333 331 412
21834 4 333 331 429
21835 3 333 331 432
21836 2 333 331 433
21837 3 334 331 412
21838 3 334 331 429
21839 1 334 331 432
21840 1 334 331 433
21841 1 412 331 429
21842 2 412 331 432
21843 1 412 331 433
21844 1 429 331 432
21845 2 429 331 433
21846 1 432 331 433
21847 1 230 332 231
21848 2 230 332 234
21849 1 230 332 251
21850 1 230 332 329
21851 2 230 332 330
21852 3 230 332 331
21853 3 230 332 333
21854 4 230 332 334
21855 1 230 332 349
21856 3 230 332 351
21857 3 230 332 353
21858 1 231 332 234
21859 2 231 332 251
21860 1 231 332 329
21861 3 231 332 330
21862 2 231 332 331
21863 1 231 332 333
21864 3 231 332 334
21865 3 231 332 349
21866 4 231 332 351
21867 3 231 332 353
21868 1 234 332 251
21869 3 234 332 329
21870 4 234 332 330
21871 3 234 332 331
21872 1 234 332 333
21873 2 234 332 334
21874 3 234 332 349
21875 3 234 332 351
21876 1 234 332 353
21877 3 251 332 329
21878 3 251 332 330
21879 4 251 332 331
21880 3 251 332 333
21881 3 251 332 334
21882 1 251 332 349
21883 2 251 332 351
21884 1 251 332 353
21885 1 329 332 330
21886 1 329 332 331
21887 2 329 332 333
21888 3 329 332 334
21889 2 329 332 349
21890 3 329 332 351
21891 4 329 332 353
21892 1 330 332 331
21893 3 330 332 333
21894 2 330 332 334
21895 1 330 332 349
21896 1 330 332 351
21897 3 330 332 353
21898 1 331 332 333
21899 1 331 332 334
21900 3 331 332 349
21901 2 331 332 351
21902 3 331 332 353
21903 1 333 332 334
21904 4 333 332 349
21905 3 333 332 351
21906 2 333 332 353
21907 3 334 332 349
21908 1 334 332 351
21909 1 334 332 353
21910 1 349 332 351
21911 2 349 332 353
21912 1 351 332 353
21913 1 214 333 231
21914 2 214 333 234
21915 1 214 333 235
21916 1 214 333 312
21917 2 214 333 314
21918 1 214 333 316
21919 3 214 333 331
21920 3 214 333 332
21921 4 214 333 334
21922 3 214 333 335
21923 3 214 333 336
21924 1 231 333 234
21925 2 231 333 235
21926 1 231 333 312
21927 3 231 333 314
21928 3 231 333 316
21929 2 231 333 331
21930 1 231 333 332
21931 3 231 333 334
21932 4 231 333 335
21933 3 231 333 336
21934 1 234 333 235
21935 3 234 333 312
21936 4 234 333 314
21937 3 234 333 316
21938 3 234 333 331
21939 1 234 333 332
21940 2 234 333 334
21941 3 234 333 335
21942 1 234 333 336
21943 3 235 333 312
21944 3 235 333 314
21945 1 235 333 316
21946 4 235 333 331
21947 3 235 333 332
21948 3 235 333 334
21949 2 235 333 335
21950 1 235 333 336
21951 1 312 333 314
21952 2 312 333 316
21953 1 312 333 331
21954 2 312 333 332
21955 3 312 333 334
21956 3 312 333 335
21957 4 312 333 336
21958 1 314 333 316
21959 1 314 333 331
21960 3 314 333 332
21961 2 314 333 334
21962 1 314 333 335
21963 3 314 333 336
21964 3 316 333 331
21965 4 316 333 332
21966 3 316 333 334
21967 1 316 333 335
21968 2 316 333 336
21969 1 331 333 332
21970 1 331 333 334
21971 2 331 333 335
21972 3 331 333 336
21973 1 332 333 334
21974 3 332 333 335
21975 2 332 333 336
21976 1 334 333 335
21977 1 334 333 336
21978 1 335 333 336
21979 1 331 334 332
21980 1 331 334 333
21981 2 331 334 335
21982 3 331 334 336
21983 2 331 334 351
21984 3 331 334 353
21985 4 331 334 355
21986 1 331 334 432
21987 1 331 334 433
21988 3 331 334 436
21989 3 331 334 453
21990 1 332 334 333
21991 3 332 334 335
21992 2 332 334 336
21993 1 332 334 351
21994 1 332 334 353
21995 3 332 334 355
21996 2 332 334 432
21997 3 332 334 433
21998 4 332 334 436
21999 3 332 334 453
22000 1 333 334 335
22001 1 333 334 336
22002 3 333 334 351
22003 2 333 334 353
22004 3 333 334 355
22005 3 333 334 432
22006 2 333 334 433
22007 3 333 334 436
22008 4 333 334 453
22009 1 335 334 336
22010 4 335 334 351
22011 3 335 334 353
22012 2 335 334 355
22013 3 335 334 432
22014 1 335 334 433
22015 1 335 334 436
22016 3 335 334 453
22017 3 336 334 351
22018 1 336 334 353
22019 1 336 334 355
22020 4 336 334 432
22021 3 336 334 433
22022 2 336 334 436
22023 3 336 334 453
22024 1 351 334 353
22025 2 351 334 355
22026 1 351 334 432
22027 3 351 334 433
22028 3 351 334 436
22029 1 351 334 453
22030 1 353 334 355
22031 3 353 334 432
22032 4 353 334 433
22033 3 353 334 436
22034 2 353 334 453
22035 3 355 334 432
22036 3 355 334 433
22037 1 355 334 436
22038 1 355 334 453
22039 1 432 334 433
22040 2 432 334 436
22041 1 432 334 453
22042 1 433 334 436
22043 2 433 334 453
22044 1 436 334 453
22045 1 314 335 316
22046 2 314 335 318
22047 1 314 335 333
22048 2 314 335 334
22049 3 314 335 336
22050 3 314 335 337
22051 4 314 335 338
22052 1 314 335 416
22053 1 314 335 433
22054 3 314 335 436
22055 3 314 335 437
22056 1 316 335 318
22057 1 316 335 333
22058 3 316 335 334
22059 2 316 335 336
22060 1 316 335 337
22061 3 316 335 338
22062 2 316 335 416
22063 3 316 335 433
22064 4 316 335 436
22065 3 316 335 437
22066 3 318 335 333
22067 4 318 335 334
22068 3 318 335 336
22069 1 318 335 337
22070 2 318 335 338
22071 1 318 335 416
22072 3 318 335 433
22073 3 318 335 436
22074 1 318 335 437
22075 1 333 335 334
22076 1 333 335 336
22077 2 333 335 337
22078 3 333 335 338
22079 3 333 335 416
22080 2 333 335 433
22081 3 333 335 436
22082 4 333 335 437
22083 1 334 335 336
22084 3 334 335 337
22085 2 334 335 338
22086 3 334 335 416
22087 1 334 335 433
22088 1 334 335 436
22089 3 334 335 437
22090 1 336 335 337
22091 1 336 335 338
22092 4 336 335 416
22093 3 336 335 433
22094 2 336 335 436
22095 3 336 335 437
22096 1 337 335 338
22097 3 337 335 416
22098 4 337 335 433
22099 3 337 335 436
22100 2 337 335 437
22101 3 338 335 416
22102 3 338 335 433
22103 1 338 335 436
22104 1 338 335 437
22105 1 416 335 433
22106 2 416 335 436
22107 1 416 335 437
22108 1 433 335 436
22109 2 433 335 437
22110 1 436 335 437
22111 1 234 336 235
22112 2 234 336 238
22113 1 234 336 255
22114 1 234 336 333
22115 2 234 336 334
22116 3 234 336 335
22117 3 234 336 337
22118 4 234 336 338
22119 1 234 336 353
22120 3 234 336 355
22121 3 234 336 357
22122 1 235 336 238
22123 2 235 336 255
22124 1 235 336 333
22125 3 235 336 334
22126 2 235 336 335
22127 1 235 336 337
22128 3 235 336 338
22129 3 235 336 353
22130 4 235 336 355
22131 3 235 336 357
22132 1 238 336 255
22133 3 238 336 333
22134 4 238 336 334
22135 3 238 336 335
22136 1 238 336 337
22137 2 238 336 338
22138 3 238 336 353
22139 3 238 336 355
22140 1 238 336 357
22141 3 255 336 333
22142 3 255 336 334
22143 4 255 336 335
22144 3 255 336 337
22145 3 255 336 338
22146 1 255 336 353
22147 2 255 336 355
22148 1 255 336 357
22149 1 333 336 334
22150 1 333 336 335
22151 2 333 336 337
22152 3 333 336 338
22153 2 333 336 353
22154 3 333 336 355
22155 4 333 336 357
22156 1 334 336 335
22157 3 334 336 337
22158 2 334 336 338
22159 1 334 336 353
22160 1 334 336 355
22161 3 334 336 357
22162 1 335 336 337
22163 1 335 336 338
22164 3 335 336 353
22165 2 335 336 355
22166 3 335 336 357
22167 1 337 336 338
22168 4 337 336 353
22169 3 337 336 355
22170 2 337 336 357
22171 3 338 336 353
22172 1 338 336 355
22173 1 338 336 357
22174 1 353 336 355
22175 2 353 336 357
22176 1 355 336 357
22177 1 218 337 235
22178 2 218 337 238
22179 1 218 337 239
22180 1 218 337 316
22181 2 218 337 318
22182 1 218 337 320
22183 3 218 337 335
22184 3 218 337 336
22185 4 218 337 338
22186 3 218 337 339
22187 3 218 337 340
22188 1 235 337 238
22189 2 235 337 239
22190 1 235 337 316
22191 3 235 337 318
22192 3 235 337 320
22193 2 235 337 335
22194 1 235 337 336
22195 3 235 337 338
22196 4 235 337 339
22197 3 235 337 340
22198 1 238 337 239
22199 3 238 337 316
22200 4 238 337 318
22201 3 238 337 320
22202 3 238 337 335
22203 1 238 337 336
22204 2 238 337 338
22205 3 238 337 339
22206 1 238 337 340
22207 3 239 337 316
22208 3 239 337 318
22209 1 239 337 320
22210 4 239 337 335
22211 3 239 337 336
22212 3 239 337 338
22213 2 239 337 339
22214 1 239 337 340
22215 1 316 337 318
22216 2 316 337 320
22217 1 316 337 335
22218 2 316 337 336
22219 3 316 337 338
22220 3 316 337 339
22221 4 316 337 340
22222 1 318 337 320
22223 1 318 337 335
22224 3 318 337 336
22225 2 318 337 338
22226 1 318 337 339
22227 3 318 337 340
22228 3 320 337 335
22229 4 320 337 336
22230 3 320 337 338
22231 1 320 337 339
22232 2 320 337 340
22233 1 335 337 336
22234 1 335 337 338
22235 2 335 337 339
22236 3 335 337 340
22237 1 336 337 338
22238 3 336 337 339
22239 2 336 337 340
22240 1 338 337 339
22241 1 338 337 340
22242 1 339 337 340
22243 1 335 338 336
22244 1 335 338 337
22245 2 335 338 339
22246 3 335 338 340
22247 2 335 338 355
22248 3 335 338 357
22249 4 335 338 359
22250 1 335 338 436
22251 1 335 338 437
22252 3 335 338 440
22253 3 335 338 457
22254 1 336 338 337
22255 3 336 338 339
22256 2 336 338 340
22257 1 336 338 355
22258 1 336 338 357
22259 3 336 338 359
22260 2 336 338 436
22261 3 336 338 437
22262 4 336 338 440
22263 3 336 338 457
22264 1 337 338 339
22265 1 337 338 340
22266 3 337 338 355
22267 2 337 338 357
22268 3 337 338 359
22269 3 337 338 436
22270 2 337 338 437
22271 3 337 338 440
22272 4 337 338 457
22273 1 339 338 340
22274 4 339 338 355
22275 3 339 338 357
22276 2 339 338 359
22277 3 339 338 436
22278 1 339 338 437
22279 1 339 338 440
22280 3 339 338 457
22281 3 340 338 355
22282 1 340 338 357
22283 1 340 338 359
22284 4 340 338 436
22285 3 340 338 437
22286 2 340 338 440
22287 3 340 338 457
22288 1 355 338 357
22289 2 355 338 359
22290 1 355 338 436
22291 3 355 338 437
22292 3 355 338 440
22293 1 355 338 457
22294 1 357 338 359
22295 3 357 338 436
22296 4 357 338 437
22297 3 357 338 440
22298 2 357 338 457
22299 3 359 338 436
22300 3 359 338 437
22301 1 359 338 440
22302 1 359 338 457
22303 1 436 338 437
22304 2 436 338 440
22305 1 436 338 457
22306 1 437 338 440
22307 2 437 338 457
22308 1 440 338 457
22309 1 318 339 320
22310 2 318 339 302
22311 1 318 339 337
22312 2 318 339 338
22313 3 318 339 340
22314 3 318 339 321
22315 4 318 339 322
22316 1 318 339 420
22317 1 318 339 437
22318 3 318 339 440
22319 3 318 339 421
22320 1 320 339 302
22321 1 320 339 337
22322 3 320 339 338
22323 2 320 339 340
22324 1 320 339 321
22325 3 320 339 322
22326 2 320 339 420
22327 3 320 339 437
22328 4 320 339 440
22329 3 320 339 421
22330 3 302 339 337
22331 4 302 339 338
22332 3 302 339 340
22333 1 302 339 321
22334 2 302 339 322
22335 1 302 339 420
22336 3 302 339 437
22337 3 302 339 440
22338 1 302 339 421
22339 1 337 339 338
22340 1 337 339 340
22341 2 337 339 321
22342 3 337 339 322
22343 3 337 339 420
22344 2 337 339 437
22345 3 337 339 440
22346 4 337 339 421
22347 1 338 339 340
22348 3 338 339 321
22349 2 338 339 322
22350 3 338 339 420
22351 1 338 339 437
22352 1 338 339 440
22353 3 338 339 421
22354 1 340 339 321
22355 1 340 339 322
22356 4 340 339 420
22357 3 340 339 437
22358 2 340 339 440
22359 3 340 339 421
22360 1 321 339 322
22361 3 321 339 420
22362 4 321 339 437
22363 3 321 339 440
22364 2 321 339 421
22365 3 322 339 420
22366 3 322 339 437
22367 1 322 339 440
22368 1 322 339 421
22369 1 420 339 437
22370 2 420 339 440
22371 1 420 339 421
22372 1 437 339 440
22373 2 437 339 421
22374 1 440 339 421
22375 1 238 340 239
22376 2 238 340 222
22377 1 238 340 259
22378 1 238 340 337
22379 2 238 340 338
22380 3 238 340 339
22381 3 238 340 321
22382 4 238 340 322
22383 1 238 340 357
22384 3 238 340 359
22385 3 238 340 341
22386 1 239 340 222
22387 2 239 340 259
22388 1 239 340 337
22389 3 239 340 338
22390 2 239 340 339
22391 1 239 340 321
22392 3 239 340 322
22393 3 239 340 357
22394 4 239 340 359
22395 3 239 340 341
22396 1 222 340 259
22397 3 222 340 337
22398 4 222 340 338
22399 3 222 340 339
22400 1 222 340 321
22401 2 222 340 322
22402 3 222 340 357
22403 3 222 340 359
22404 1 222 340 341
22405 3 259 340 337
22406 3 259 340 338
22407 4 259 340 339
22408 3 259 340 321
22409 3 259 340 322
22410 1 259 340 357
22411 2 259 340 359
22412 1 259 340 341
22413 1 337 340 338
22414 1 337 340 339
22415 2 337 340 321
22416 3 337 340 322
22417 2 337 340 357
22418 3 337 340 359
22419 4 337 340 341
22420 1 338 340 339
22421 3 338 340 321
22422 2 338 340 322
22423 1 338 340 357
22424 1 338 340 359
22425 3 338 340 341
22426 1 339 340 321
22427 1 339 340 322
22428 3 339 340 357
22429 2 339 340 359
22430 3 339 340 341
22431 1 321 340 322
22432 4 321 340 357
22433 3 321 340 359
22434 2 321 340 341
22435 3 322 340 357
22436 1 322 340 359
22437 1 322 340 341
22438 1 357 340 359
22439 2 357 340 341
22440 1 359 340 341
22441 1 222 341 259
22442 2 222 341 242
22443 1 222 341 243
22444 1 222 341 340
22445 2 222 341 322
22446 1 222 341 324
22447 3 222 341 359
22448 3 222 341 360
22449 4 222 341 342
22450 3 222 341 343
22451 3 222 341 344
22452 1 259 341 242
22453 2 259 341 243
22454 1 259 341 340
22455 3 259 341 322
22456 3 259 341 324
22457 2 259 341 359
22458 1 259 341 360
22459 3 259 341 342
22460 4 259 341 343
22461 3 259 341 344
22462 1 242 341 243
22463 3 242 341 340
22464 4 242 341 322
22465 3 242 341 324
22466 3 242 341 359
22467 1 242 341 360
22468 2 242 341 342
22469 3 242 341 343
22470 1 242 341 344
22471 3 243 341 340
22472 3 243 341 322
22473 1 243 341 324
22474 4 243 341 359
22475 3 243 341 360
22476 3 243 341 342
22477 2 243 341 343
22478 1 243 341 344
22479 1 340 341 322
22480 2 340 341 324
22481 1 340 341 359
22482 2 340 341 360
22483 3 340 341 342
22484 3 340 341 343
22485 4 340 341 344
22486 1 322 341 324
22487 1 322 341 359
22488 3 322 341 360
22489 2 322 341 342
22490 1 322 341 343
22491 3 322 341 344
22492 3 324 341 359
22493 4 324 341 360
22494 3 324 341 342
22495 1 324 341 343
22496 2 324 341 344
22497 1 359 341 360
22498 1 359 341 342
22499 2 359 341 343
22500 3 359 341 344
22501 1 360 341 342
22502 3 360 341 343
22503 2 360 341 344
22504 1 342 341 343
22505 1 342 341 344
22506 1 343 341 344
22507 1 359 342 360
22508 1 359 342 341
22509 2 359 342 343
22510 3 359 342 344
22511 2 359 342 379
22512 3 359 342 361
22513 4 359 342 363
22514 1 359 342 460
22515 1 359 342 441
22516 3 359 342 444
22517 3 359 342 461
22518 1 360 342 341
22519 3 360 342 343
22520 2 360 342 344
22521 1 360 342 379
22522 1 360 342 361
22523 3 360 342 363
22524 2 360 342 460
22525 3 360 342 441
22526 4 360 342 444
22527 3 360 342 461
22528 1 341 342 343
22529 1 341 342 344
22530 3 341 342 379
22531 2 341 342 361
22532 3 341 342 363
22533 3 341 342 460
22534 2 341 342 441
22535 3 341 342 444
22536 4 341 342 461
22537 1 343 342 344
22538 4 343 342 379
22539 3 343 342 361
22540 2 343 342 363
22541 3 343 342 460
22542 1 343 342 441
22543 1 343 342 444
22544 3 343 342 461
22545 3 344 342 379
22546 1 344 342 361
22547 1 344 342 363
22548 4 344 342 460
22549 3 344 342 441
22550 2 344 342 444
22551 3 344 342 461
22552 1 379 342 361
22553 2 379 342 363
22554 1 379 342 460
22555 3 379 342 441
22556 3 379 342 444
22557 1 379 342 461
22558 1 361 342 363
22559 3 361 342 460
22560 4 361 342 441
22561 3 361 342 444
22562 2 361 342 461
22563 3 363 342 460
22564 3 363 342 441
22565 1 363 342 444
22566 1 363 342 461
22567 1 460 342 441
22568 2 460 342 444
22569 1 460 342 461
22570 1 441 342 444
22571 2 441 342 461
22572 1 444 342 461
22573 1 322 343 324
22574 2 322 343 326
22575 1 322 343 341
22576 2 322 343 342
22577 3 322 343 344
22578 3 322 343 345
22579 4 322 343 346
22580 1 322 343 424
22581 1 322 343 441
22582 3 322 343 444
22583 3 322 343 445
22584 1 324 343 326
22585 1 324 343 341
22586 3 324 343 342
22587 2 324 343 344
22588 1 324 343 345
22589 3 324 343 346
22590 2 324 343 424
22591 3 324 343 441
22592 4 324 343 444
22593 3 324 343 445
22594 3 326 343 341
22595 4 326 343 342
22596 3 326 343 344
22597 1 326 343 345
22598 2 326 343 346
22599 1 326 343 424
22600 3 326 343 441
22601 3 326 343 444
22602 1 326 343 445
22603 1 341 343 342
22604 1 341 343 344
22605 2 341 343 345
22606 3 341 343 346
22607 3 341 343 424
22608 2 341 343 441
22609 3 341 343 444
22610 4 341 343 445
22611 1 342 343 344
22612 3 342 343 345
22613 2 342 343 346
22614 3 342 343 424
22615 1 342 343 441
22616 1 342 343 444
22617 3 342 343 445
22618 1 344 343 345
22619 1 344 343 346
22620 4 344 343 424
22621 3 344 343 441
22622 2 344 343 444
22623 3 344 343 445
22624 1 345 343 346
22625 3 345 343 424
22626 4 345 343 441
22627 3 345 343 444
22628 2 345 343 445
22629 3 346 343 424
22630 3 346 343 441
22631 1 346 343 444
22632 1 346 343 445
22633 1 424 343 441
22634 2 424 343 444
22635 1 424 343 445
22636 1 441 343 444
22637 2 441 343 445
22638 1 444 343 445
22639 1 242 344 243
22640 2 242 344 246
22641 1 242 344 263
22642 1 242 344 341
22643 2 242 344 342
22644 3 242 344 343
22645 3 242 344 345
22646 4 242 344 346
22647 1 242 344 361
22648 3 242 344 363
22649 3 242 344 365
22650 1 243 344 246
22651 2 243 344 263
22652 1 243 344 341
22653 3 243 344 342
22654 2 243 344 343
22655 1 243 344 345
22656 3 243 344 346
22657 3 243 344 361
22658 4 243 344 363
22659 3 243 344 365
22660 1 246 344 263
22661 3 246 344 341
22662 4 246 344 342
22663 3 246 344 343
22664 1 246 344 345
22665 2 246 344 346
22666 3 246 344 361
22667 3 246 344 363
22668 1 246 344 365
22669 3 263 344 341
22670 3 263 344 342
22671 4 263 344 343
22672 3 263 344 345
22673 3 263 344 346
22674 1 263 344 361
22675 2 263 344 363
22676 1 263 344 365
22677 1 341 344 342
22678 1 341 344 343
22679 2 341 344 345
22680 3 341 344 346
22681 2 341 344 361
22682 3 341 344 363
22683 4 341 344 365
22684 1 342 344 343
22685 3 342 344 345
22686 2 342 344 346
22687 1 342 344 361
22688 1 342 344 363
22689 3 342 344 365
22690 1 343 344 345
22691 1 343 344 346
22692 3 343 344 361
22693 2 343 344 363
22694 3 343 344 365
22695 1 345 344 346
22696 4 345 344 361
22697 3 345 344 363
22698 2 345 344 365
22699 3 346 344 361
22700 1 346 344 363
22701 1 346 344 365
22702 1 361 344 363
22703 2 361 344 365
22704 1 363 344 365
22705 1 226 345 243
22706 2 226 345 246
22707 1 226 345 247
22708 1 226 345 324
22709 2 226 345 326
22710 1 226 345 328
22711 3 226 345 343
22712 3 226 345 344
22713 4 226 345 346
22714 3 226 345 347
22715 3 226 345 348
22716 1 243 345 246
22717 2 243 345 247
22718 1 243 345 324
22719 3 243 345 326
22720 3 243 345 328
22721 2 243 345 343
22722 1 243 345 344
22723 3 243 345 346
22724 4 243 345 347
22725 3 243 345 348
22726 1 246 345 247
22727 3 246 345 324
22728 4 246 345 326
22729 3 246 345 328
22730 3 246 345 343
22731 1 246 345 344
22732 2 246 345 346
22733 3 246 345 347
22734 1 246 345 348
22735 3 247 345 324
22736 3 247 345 326
22737 1 247 345 328
22738 4 247 345 343
22739 3 247 345 344
22740 3 247 345 346
22741 2 247 345 347
22742 1 247 345 348
22743 1 324 345 326
22744 2 324 345 328
22745 1 324 345 343
22746 2 324 345 344
22747 3 324 345 346
22748 3 324 345 347
22749 4 324 345 348
22750 1 326 345 328
22751 1 326 345 343
22752 3 326 345 344
22753 2 326 345 346
22754 1 326 345 347
22755 3 326 345 348
22756 3 328 345 343
22757 4 328 345 344
22758 3 328 345 346
22759 1 328 345 347
22760 2 328 345 348
22761 1 343 345 344
22762 1 343 345 346
22763 2 343 345 347
22764 3 343 345 348
22765 1 344 345 346
22766 3 344 345 347
22767 2 344 345 348
22768 1 346 345 347
22769 1 346 345 348
22770 1 347 345 348
22771 1 343 346 344
22772 1 343 346 345
22773 2 343 346 347
22774 3 343 346 348
22775 2 343 346 363
22776 3 343 346 365
22777 4 343 346 367
22778 1 343 346 444
22779 1 343 346 445
22780 3 343 346 448
22781 3 343 346 465
22782 1 344 346 345
22783 3 344 346 347
22784 2 344 346 348
22785 1 344 346 363
22786 1 344 346 365
22787 3 344 346 367
22788 2 344 346 444
22789 3 344 346 445
22790 4 344 346 448
22791 3 344 346 465
22792 1 345 346 347
22793 1 345 346 348
22794 3 345 346 363
22795 2 345 346 365
22796 3 345 346 367
22797 3 345 346 444
22798 2 345 346 445
22799 3 345 346 448
22800 4 345 346 465
22801 1 347 346 348
22802 4 347 346 363
22803 3 347 346 365
22804 2 347 346 367
22805 3 347 346 444
22806 1 347 346 445
22807 1 347 346 448
22808 3 347 346 465
22809 3 348 346 363
22810 1 348 346 365
22811 1 348 346 367
22812 4 348 346 444
22813 3 348 346 445
22814 2 348 346 448
22815 3 348 346 465
22816 1 363 346 365
22817 2 363 346 367
22818 1 363 346 444
22819 3 363 346 445
22820 3 363 346 448
22821 1 363 346 465
22822 1 365 346 367
22823 3 365 346 444
22824 4 365 346 445
22825 3 365 346 448
22826 2 365 346 465
22827 3 367 346 444
22828 3 367 346 445
22829 1 367 346 448
22830 1 367 346 465
22831 1 444 346 445
22832 2 444 346 448
22833 1 444 346 465
22834 1 445 346 448
22835 2 445 346 465
22836 1 448 346 465
22837 1 326 347 328
22838 2 326 347 330
22839 1 326 347 345
22840 2 326 347 346
22841 3 326 347 348
22842 3 326 347 349
22843 4 326 347 350
22844 1 326 347 428
22845 1 326 347 445
22846 3 326 347 448
22847 3 326 347 449
22848 1 328 347 330
22849 1 328 347 345
22850 3 328 347 346
22851 2 328 347 348
22852 1 328 347 349
22853 3 328 347 350
22854 2 328 347 428
22855 3 328 347 445
22856 4 328 347 448
22857 3 328 347 449
22858 3 330 347 345
22859 4 330 347 346
22860 3 330 347 348
22861 1 330 347 349
22862 2 330 347 350
22863 1 330 347 428
22864 3 330 347 445
22865 3 330 347 448
22866 1 330 347 449
22867 1 345 347 346
22868 1 345 347 348
22869 2 345 347 349
22870 3 345 347 350
22871 3 345 347 428
22872 2 345 347 445
22873 3 345 347 448
22874 4 345 347 449
22875 1 346 347 348
22876 3 346 347 349
22877 2 346 347 350
22878 3 346 347 428
22879 1 346 347 445
22880 1 346 347 448
22881 3 346 347 449
22882 1 348 347 349
22883 1 348 347 350
22884 4 348 347 428
22885 3 348 347 445
22886 2 348 347 448
22887 3 348 347 449
22888 1 349 347 350
22889 3 349 347 428
22890 4 349 347 445
22891 3 349 347 448
22892 2 349 347 449
22893 3 350 347 428
22894 3 350 347 445
22895 1 350 347 448
22896 1 350 347 449
22897 1 428 347 445
22898 2 428 347 448
22899 1 428 347 449
22900 1 445 347 448
22901 2 445 347 449
22902 1 448 347 449
22903 1 246 348 247
22904 2 246 348 250
22905 1 246 348 267
22906 1 246 348 345
22907 2 246 348 346
22908 3 246 348 347
22909 3 246 348 349
22910 4 246 348 350
22911 1 246 348 365
22912 3 246 348 367
22913 3 246 348 369
22914 1 247 348 250
22915 2 247 348 267
22916 1 247 348 345
22917 3 247 348 346
22918 2 247 348 347
22919 1 247 348 349
22920 3 247 348 350
22921 3 247 348 365
22922 4 247 348 367
22923 3 247 348 369
22924 1 250 348 267
22925 3 250 348 345
22926 4 250 348 346
22927 3 250 348 347
22928 1 250 348 349
22929 2 250 348 350
22930 3 250 348 365
22931 3 250 348 367
22932 1 250 348 369
22933 3 267 348 345
22934 3 267 348 346
22935 4 267 348 347
22936 3 267 348 349
22937 3 267 348 350
22938 1 267 348 365
22939 2 267 348 367
22940 1 267 348 369
22941 1 345 348 346
22942 1 345 348 347
22943 2 345 348 349
22944 3 345 348 350
22945 2 345 348 365
22946 3 345 348 367
22947 4 345 348 369
22948 1 346 348 347
22949 3 346 348 349
22950 2 346 348 350
22951 1 346 348 365
22952 1 346 348 367
22953 3 346 348 369
22954 1 347 348 349
22955 1 347 348 350
22956 3 347 348 365
22957 2 347 348 367
22958 3 347 348 369
22959 1 349 348 350
22960 4 349 348 365
22961 3 349 348 367
22962 2 349 348 369
22963 3 350 348 365
22964 1 350 348 367
22965 1 350 348 369
22966 1 365 348 367
22967 2 365 348 369
22968 1 367 348 369
22969 1 230 349 247
22970 2 230 349 250
22971 1 230 349 251
22972 1 230 349 328
22973 2 230 349 330
22974 1 230 349 332
22975 3 230 349 347
22976 3 230 349 348
22977 4 230 349 350
22978 3 230 349 351
22979 3 230 349 352
22980 1 247 349 250
22981 2 247 349 251
22982 1 247 349 328
22983 3 247 349 330
22984 3 247 349 332
22985 2 247 349 347
22986 1 247 349 348
22987 3 247 349 350
22988 4 247 349 351
22989 3 247 349 352
22990 1 250 349 251
22991 3 250 349 328
22992 4 250 349 330
22993 3 250 349 332
22994 3 250 349 347
22995 1 250 349 348
22996 2 250 349 350
22997 3 250 349 351
22998 1 250 349 352
22999 3 251 349 328
23000 3 251 349 330
23001 1 251 349 332
23002 4 251 349 347
23003 3 251 349 348
23004 3 251 349 350
23005 2 251 349 351
23006 1 251 349 352
23007 1 328 349 330
23008 2 328 349 332
23009 1 328 349 347
23010 2 328 349 348
23011 3 328 349 350
23012 3 328 349 351
23013 4 328 349 352
23014 1 330 349 332
23015 1 330 349 347
23016 3 330 349 348
23017 2 330 349 350
23018 1 330 349 351
23019 3 330 349 352
23020 3 332 349 347
23021 4 332 349 348
23022 3 332 349 350
23023 1 332 349 351
23024 2 332 349 352
23025 1 347 349 348
23026 1 347 349 350
23027 2 347 349 351
23028 3 347 349 352
23029 1 348 349 350
23030 3 348 349 351
23031 2 348 349 352
23032 1 350 349 351
23033 1 350 349 352
23034 1 351 349 352
23035 1 347 350 348
23036 1 347 350 349
23037 2 347 350 351
23038 3 347 350 352
23039 2 347 350 367
23040 3 347 350 369
23041 4 347 350 371
23042 1 347 350 448
23043 1 347 350 449
23044 3 347 350 452
23045 3 347 350 469
23046 1 348 350 349
23047 3 348 350 351
23048 2 348 350 352
23049 1 348 350 367
23050 1 348 350 369
23051 3 348 350 371
23052 2 348 350 448
23053 3 348 350 449
23054 4 348 350 452
23055 3 348 350 469
23056 1 349 350 351
23057 1 349 350 352
23058 3 349 350 367
23059 2 349 350 369
23060 3 349 350 371
23061 3 349 350 448
23062 2 349 350 449
23063 3 349 350 452
23064 4 349 350 469
23065 1 351 350 352
23066 4 351 350 367
23067 3 351 350 369
23068 2 351 350 371
23069 3 351 350 448
23070 1 351 350 449
23071 1 351 350 452
23072 3 351 350 469
23073 3 352 350 367
23074 1 352 350 369
23075 1 352 350 371
23076 4 352 350 448
23077 3 352 350 449
23078 2 352 350 452
23079 3 352 350 469
23080 1 367 350 369
23081 2 367 350 371
23082 1 367 350 448
23083 3 367 350 449
23084 3 367 350 452
23085 1 367 350 469
23086 1 369 350 371
23087 3 369 350 448
23088 4 369 350 449
23089 3 369 350 452
23090 2 369 350 469
23091 3 371 350 448
23092 3 371 350 449
23093 1 371 350 452
23094 1 371 350 469
23095 1 448 350 449
23096 2 448 350 452
23097 1 448 350 469
23098 1 449 350 452
23099 2 449 350 469
23100 1 452 350 469
23101 1 330 351 332
23102 2 330 351 334
23103 1 330 351 349
23104 2 330 351 350
23105 3 330 351 352
23106 3 330 351 353
23107 4 330 351 354
23108 1 330 351 432
23109 1 330 351 449
23110 3 330 351 452
23111 3 330 351 453
23112 1 332 351 334
23113 1 332 351 349
23114 3 332 351 350
23115 2 332 351 352
23116 1 332 351 353
23117 3 332 351 354
23118 2 332 351 432
23119 3 332 351 449
23120 4 332 351 452
23121 3 332 351 453
23122 3 334 351 349
23123 4 334 351 350
23124 3 334 351 352
23125 1 334 351 353
23126 2 334 351 354
23127 1 334 351 432
23128 3 334 351 449
23129 3 334 351 452
23130 1 334 351 453
23131 1 349 351 350
23132 1 349 351 352
23133 2 349 351 353
23134 3 349 351 354
23135 3 349 351 432
23136 2 349 351 449
23137 3 349 351 452
23138 4 349 351 453
23139 1 350 351 352
23140 3 350 351 353
23141 2 350 351 354
23142 3 350 351 432
23143 1 350 351 449
23144 1 350 351 452
23145 3 350 351 453
23146 1 352 351 353
23147 1 352 351 354
23148 4 352 351 432
23149 3 352 351 449
23150 2 352 351 452
23151 3 352 351 453
23152 1 353 351 354
23153 3 353 351 432
23154 4 353 351 449
23155 3 353 351 452
23156 2 353 351 453
23157 3 354 351 432
23158 3 354 351 449
23159 1 354 351 452
23160 1 354 351 453
23161 1 432 351 449
23162 2 432 351 452
23163 1 432 351 453
23164 1 449 351 452
23165 2 449 351 453
23166 1 452 351 453
23167 1 250 352 251
23168 2 250 352 254
23169 1 250 352 271
23170 1 250 352 349
23171 2 250 352 350
23172 3 250 352 351
23173 3 250 352 353
23174 4 250 352 354
23175 1 250 352 369
23176 3 250 352 371
23177 3 250 352 373
23178 1 251 352 254
23179 2 251 352 271
23180 1 251 352 349
23181 3 251 352 350
23182 2 251 352 351
23183 1 251 352 353
23184 3 251 352 354
23185 3 251 352 369
23186 4 251 352 371
23187 3 251 352 373
23188 1 254 352 271
23189 3 254 352 349
23190 4 254 352 350
23191 3 254 352 351
23192 1 254 352 353
23193 2 254 352 354
23194 3 254 352 369
23195 3 254 352 371
23196 1 254 352 373
23197 3 271 352 349
23198 3 271 352 350
23199 4 271 352 351
23200 3 271 352 353
23201 3 271 352 354
23202 1 271 352 369
23203 2 271 352 371
23204 1 271 352 373
23205 1 349 352 350
23206 1 349 352 351
23207 2 349 352 353
23208 3 349 352 354
23209 2 349 352 369
23210 3 349 352 371
23211 4 349 352 373
23212 1 350 352 351
23213 3 350 352 353
23214 2 350 352 354
23215 1 350 352 369
23216 1 350 352 371
23217 3 350 352 373
23218 1 351 352 353
23219 1 351 352 354
23220 3 351 352 369
23221 2 351 352 371
23222 3 351 352 373
23223 1 353 352 354
23224 4 353 352 369
23225 3 353 352 371
23226 2 353 352 373
23227 3 354 352 369
23228 1 354 352 371
23229 1 354 352 373
23230 1 369 352 371
23231 2 369 352 373
23232 1 371 352 373
23233 1 234 353 251
23234 2 234 353 254
23235 1 234 353 255
23236 1 234 353 332
23237 2 234 353 334
23238 1 234 353 336
23239 3 234 353 351
23240 3 234 353 352
23241 4 234 353 354
23242 3 234 353 355
23243 3 234 353 356
23244 1 251 353 254
23245 2 251 353 255
23246 1 251 353 332
23247 3 251 353 334
23248 3 251 353 336
23249 2 251 353 351
23250 1 251 353 352
23251 3 251 353 354
23252 4 251 353 355
23253 3 251 353 356
23254 1 254 353 255
23255 3 254 353 332
23256 4 254 353 334
23257 3 254 353 336
23258 3 254 353 351
23259 1 254 353 352
23260 2 254 353 354
23261 3 254 353 355
23262 1 254 353 356
23263 3 255 353 332
23264 3 255 353 334
23265 1 255 353 336
23266 4 255 353 351
23267 3 255 353 352
23268 3 255 353 354
23269 2 255 353 355
23270 1 255 353 356
23271 1 332 353 334
23272 2 332 353 336
23273 1 332 353 351
23274 2 332 353 352
23275 3 332 353 354
23276 3 332 353 355
23277 4 332 353 356
23278 1 334 353 336
23279 1 334 353 351
23280 3 334 353 352
23281 2 334 353 354
23282 1 334 353 355
23283 3 334 353 356
23284 3 336 353 351
23285 4 336 353 352
23286 3 336 353 354
23287 1 336 353 355
23288 2 336 353 356
23289 1 351 353 352
23290 1 351 353 354
23291 2 351 353 355
23292 3 351 353 356
23293 1 352 353 354
23294 3 352 353 355
23295 2 352 353 356
23296 1 354 353 355
23297 1 354 353 356
23298 1 355 353 356
23299 1 351 354 352
23300 1 351 354 353
23301 2 351 354 355
23302 3 351 354 356
23303 2 351 354 371
23304 3 351 354 373
23305 4 351 354 375
23306 1 351 354 452
23307 1 351 354 453
23308 3 351 354 456
23309 3 351 354 473
23310 1 352 354 353
23311 3 352 354 355
23312 2 352 354 356
23313 1 352 354 371
23314 1 352 354 373
23315 3 352 354 375
23316 2 352 354 452
23317 3 352 354 453
23318 4 352 354 456
23319 3 352 354 473
23320 1 353 354 355
23321 1 353 354 356
23322 3 353 354 371
23323 2 353 354 373
23324 3 353 354 375
23325 3 353 354 452
23326 2 353 354 453
23327 3 353 354 456
23328 4 353 354 473
23329 1 355 354 356
23330 4 355 354 371
23331 3 355 354 373
23332 2 355 354 375
23333 3 355 354 452
23334 1 355 354 453
23335 1 355 354 456
23336 3 355 354 473
23337 3 356 354 371
23338 1 356 354 373
23339 1 356 354 375
23340 4 356 354 452
23341 3 356 354 453
23342 2 356 354 456
23343 3 356 354 473
23344 1 371 354 373
23345 2 371 354 375
23346 1 371 354 452
23347 3 371 354 453
23348 3 371 354 456
23349 1 371 354 473
23350 1 373 354 375
23351 3 373 354 452
23352 4 373 354 453
23353 3 373 354 456
23354 2 373 354 473
23355 3 375 354 452
23356 3 375 354 453
23357 1 375 354 456
23358 1 375 354 473
23359 1 452 354 453
23360 2 452 354 456
23361 1 452 354 473
23362 1 453 354 456
23363 2 453 354 473
23364 1 456 354 473
23365 1 334 355 336
23366 2 334 355 338
23367 1 334 355 353
23368 2 334 355 354
23369 3 334 355 356
23370 3 334 355 357
23371 4 334 355 358
23372 1 334 355 436
23373 1 334 355 453
23374 3 334 355 456
23375 3 334 355 457
23376 1 336 355 338
23377 1 336 355 353
23378 3 336 355 354
23379 2 336 355 356
23380 1 336 355 357
23381 3 336 355 358
23382 2 336 355 436
23383 3 336 355 453
23384 4 336 355 456
23385 3 336 355 457
23386 3 338 355 353
23387 4 338 355 354
23388 3 338 355 356
23389 1 338 355 357
23390 2 338 355 358
23391 1 338 355 436
23392 3 338 355 453
23393 3 338 355 456
23394 1 338 355 457
23395 1 353 355 354
23396 1 353 355 356
23397 2 353 355 357
23398 3 353 355 358
23399 3 353 355 436
23400 2 353 355 453
23401 3 353 355 456
23402 4 353 355 457
23403 1 354 355 356
23404 3 354 355 357
23405 2 354 355 358
23406 3 354 355 436
23407 1 354 355 453
23408 1 354 355 456
23409 3 354 355 457
23410 1 356 355 357
23411 1 356 355 358
23412 4 356 355 436
23413 3 356 355 453
23414 2 356 355 456
23415 3 356 355 457
23416 1 357 355 358
23417 3 357 355 436
23418 4 357 355 453
23419 3 357 355 456
23420 2 357 355 457
23421 3 358 355 436
23422 3 358 355 453
23423 1 358 355 456
23424 1 358 355 457
23425 1 436 355 453
23426 2 436 355 456
23427 1 436 355 457
23428 1 453 355 456
23429 2 453 355 457
23430 1 456 355 457
23431 1 254 356 255
23432 2 254 356 258
23433 1 254 356 275
23434 1 254 356 353
23435 2 254 356 354
23436 3 254 356 355
23437 3 254 356 357
23438 4 254 356 358
23439 1 254 356 373
23440 3 254 356 375
23441 3 254 356 377
23442 1 255 356 258
23443 2 255 356 275
23444 1 255 356 353
23445 3 255 356 354
23446 2 255 356 355
23447 1 255 356 357
23448 3 255 356 358
23449 3 255 356 373
23450 4 255 356 375
23451 3 255 356 377
23452 1 258 356 275
23453 3 258 356 353
23454 4 258 356 354
23455 3 258 356 355
23456 1 258 356 357
23457 2 258 356 358
23458 3 258 356 373
23459 3 258 356 375
23460 1 258 356 377
23461 3 275 356 353
23462 3 275 356 354
23463 4 275 356 355
23464 3 275 356 357
23465 3 275 356 358
23466 1 275 356 373
23467 2 275 356 375
23468 1 275 356 377
23469 1 353 356 354
23470 1 353 356 355
23471 2 353 356 357
23472 3 353 356 358
23473 2 353 356 373
23474 3 353 356 375
23475 4 353 356 377
23476 1 354 356 355
23477 3 354 356 357
23478 2 354 356 358
23479 1 354 356 373
23480 1 354 356 375
23481 3 354 356 377
23482 1 355 356 357
23483 1 355 356 358
23484 3 355 356 373
23485 2 355 356 375
23486 3 355 356 377
23487 1 357 356 358
23488 4 357 356 373
23489 3 357 356 375
23490 2 357 356 377
23491 3 358 356 373
23492 1 358 356 375
23493 1 358 356 377
23494 1 373 356 375
23495 2 373 356 377
23496 1 375 356 377
23497 1 238 357 255
23498 2 238 357 258
23499 1 238 357 259
23500 1 238 357 336
23501 2 238 357 338
23502 1 238 357 340
23503 3 238 357 355
23504 3 238 357 356
23505 4 238 357 358
23506 3 238 357 359
23507 3 238 357 360
23508 1 255 357 258
23509 2 255 357 259
23510 1 255 357 336
23511 3 255 357 338
23512 3 255 357 340
23513 2 255 357 355
23514 1 255 357 356
23515 3 255 357 358
23516 4 255 357 359
23517 3 255 357 360
23518 1 258 357 259
23519 3 258 357 336
23520 4 258 357 338
23521 3 258 357 340
23522 3 258 357 355
23523 1 258 357 356
23524 2 258 357 358
23525 3 258 357 359
23526 1 258 357 360
23527 3 259 357 336
23528 3 259 357 338
23529 1 259 357 340
23530 4 259 357 355
23531 3 259 357 356
23532 3 259 357 358
23533 2 259 357 359
23534 1 259 357 360
23535 1 336 357 338
23536 2 336 357 340
23537 1 336 357 355
23538 2 336 357 356
23539 3 336 357 358
23540 3 336 357 359
23541 4 336 357 360
23542 1 338 357 340
23543 1 338 357 355
23544 3 338 357 356
23545 2 338 357 358
23546 1 338 357 359
23547 3 338 357 360
23548 3 340 357 355
23549 4 340 357 356
23550 3 340 357 358
23551 1 340 357 359
23552 2 340 357 360
23553 1 355 357 356
23554 1 355 357 358
23555 2 355 357 359
23556 3 355 357 360
23557 1 356 357 358
23558 3 356 357 359
23559 2 356 357 360
23560 1 358 357 359
23561 1 358 357 360
23562 1 359 357 360
23563 1 355 358 356
23564 1 355 358 357
23565 2 355 358 359
23566 3 355 358 360
23567 2 355 358 375
23568 3 355 358 377
23569 4 355 358 379
23570 1 355 358 456
23571 1 355 358 457
23572 3 355 358 460
23573 3 355 358 477
23574 1 356 358 357
23575 3 356 358 359
23576 2 356 358 360
23577 1 356 358 375
23578 1 356 358 377
23579 3 356 358 379
23580 2 356 358 456
23581 3 356 358 457
23582 4 356 358 460
23583 3 356 358 477
23584 1 357 358 359
23585 1 357 358 360
23586 3 357 358 375
23587 2 357 358 377
23588 3 357 358 379
23589 3 357 358 456
23590 2 357 358 457
23591 3 357 358 460
23592 4 357 358 477
23593 1 359 358 360
23594 4 359 358 375
23595 3 359 358 377
23596 2 359 358 379
23597 3 359 358 456
23598 1 359 358 457
23599 1 359 358 460
23600 3 359 358 477
23601 3 360 358 375
23602 1 360 358 377
23603 1 360 358 379
23604 4 360 358 456
23605 3 360 358 457
23606 2 360 358 460
23607 3 360 358 477
23608 1 375 358 377
23609 2 375 358 379
23610 1 375 358 456
23611 3 375 358 457
23612 3 375 358 460
23613 1 375 358 477
23614 1 377 358 379
23615 3 377 358 456
23616 4 377 358 457
23617 3 377 358 460
23618 2 377 358 477
23619 3 379 358 456
23620 3 379 358 457
23621 1 379 358 460
23622 1 379 358 477
23623 1 456 358 457
23624 2 456 358 460
23625 1 456 358 477
23626 1 457 358 460
23627 2 457 358 477
23628 1 460 358 477
23629 1 338 359 340
23630 2 338 359 322
23631 1 338 359 357
23632 2 338 359 358
23633 3 338 359 360
23634 3 338 359 341
23635 4 338 359 342
23636 1 338 359 440
23637 1 338 359 457
23638 3 338 359 460
23639 3 338 359 441
23640 1 340 359 322
23641 1 340 359 357
23642 3 340 359 358
23643 2 340 359 360
23644 1 340 359 341
23645 3 340 359 342
23646 2 340 359 440
23647 3 340 359 457
23648 4 340 359 460
23649 3 340 359 441
23650 3 322 359 357
23651 4 322 359 358
23652 3 322 359 360
23653 1 322 359 341
23654 2 322 359 342
23655 1 322 359 440
23656 3 322 359 457
23657 3 322 359 460
23658 1 322 359 441
23659 1 357 359 358
23660 1 357 359 360
23661 2 357 359 341
23662 3 357 359 342
23663 3 357 359 440
23664 2 357 359 457
23665 3 357 359 460
23666 4 357 359 441
23667 1 358 359 360
23668 3 358 359 341
23669 2 358 359 342
23670 3 358 359 440
23671 1 358 359 457
23672 1 358 359 460
23673 3 358 359 441
23674 1 360 359 341
23675 1 360 359 342
23676 4 360 359 440
23677 3 360 359 457
23678 2 360 359 460
23679 3 360 359 441
23680 1 341 359 342
23681 3 341 359 440
23682 4 341 359 457
23683 3 341 359 460
23684 2 341 359 441
23685 3 342 359 440
23686 3 342 359 457
23687 1 342 359 460
23688 1 342 359 441
23689 1 440 359 457
23690 2 440 359 460
23691 1 440 359 441
23692 1 457 359 460
23693 2 457 359 441
23694 1 460 359 441
23695 1 258 360 259
23696 2 258 360 242
23697 1 258 360 279
23698 1 258 360 357
23699 2 258 360 358
23700 3 258 360 359
23701 3 258 360 341
23702 4 258 360 342
23703 1 258 360 377
23704 3 258 360 379
23705 3 258 360 361
23706 1 259 360 242
23707 2 259 360 279
23708 1 259 360 357
23709 3 259 360 358
23710 2 259 360 359
23711 1 259 360 341
23712 3 259 360 342
23713 3 259 360 377
23714 4 259 360 379
23715 3 259 360 361
23716 1 242 360 279
23717 3 242 360 357
23718 4 242 360 358
23719 3 242 360 359
23720 1 242 360 341
23721 2 242 360 342
23722 3 242 360 377
23723 3 242 360 379
23724 1 242 360 361
23725 3 279 360 357
23726 3 279 360 358
23727 4 279 360 359
23728 3 279 360 341
23729 3 279 360 342
23730 1 279 360 377
23731 2 279 360 379
23732 1 279 360 361
23733 1 357 360 358
23734 1 357 360 359
23735 2 357 360 341
23736 3 357 360 342
23737 2 357 360 377
23738 3 357 360 379
23739 4 357 360 361
23740 1 358 360 359
23741 3 358 360 341
23742 2 358 360 342
23743 1 358 360 377
23744 1 358 360 379
23745 3 358 360 361
23746 1 359 360 341
23747 1 359 360 342
23748 3 359 360 377
23749 2 359 360 379
23750 3 359 360 361
23751 1 341 360 342
23752 4 341 360 377
23753 3 341 360 379
23754 2 341 360 361
23755 3 342 360 377
23756 1 342 360 379
23757 1 342 360 361
23758 1 377 360 379
23759 2 377 360 361
23760 1 379 360 361
23761 1 242 361 279
23762 2 242 361 262
23763 1 242 361 263
23764 1 242 361 360
23765 2 242 361 342
23766 1 242 361 344
23767 3 242 361 379
23768 3 242 361 380
23769 4 242 361 362
23770 3 242 361 363
23771 3 242 361 364
23772 1 279 361 262
23773 2 279 361 263
23774 1 279 361 360
23775 3 279 361 342
23776 3 279 361 344
23777 2 279 361 379
23778 1 279 361 380
23779 3 279 361 362
23780 4 279 361 363
23781 3 279 361 364
23782 1 262 361 263
23783 3 262 361 360
23784 4 262 361 342
23785 3 262 361 344
23786 3 262 361 379
23787 1 262 361 380
23788 2 262 361 362
23789 3 262 361 363
23790 1 262 361 364
23791 3 263 361 360
23792 3 263 361 342
23793 1 263 361 344
23794 4 263 361 379
23795 3 263 361 380
23796 3 263 361 362
23797 2 263 361 363
23798 1 263 361 364
23799 1 360 361 342
23800 2 360 361 344
23801 1 360 361 379
23802 2 360 361 380
23803 3 360 361 362
23804 3 360 361 363
23805 4 360 361 364
23806 1 342 361 344
23807 1 342 361 379
23808 3 342 361 380
23809 2 342 361 362
23810 1 342 361 363
23811 3 342 361 364
23812 3 344 361 379
23813 4 344 361 380
23814 3 344 361 362
23815 1 344 361 363
23816 2 344 361 364
23817 1 379 361 380
23818 1 379 361 362
23819 2 379 361 363
23820 3 379 361 364
23821 1 380 361 362
23822 3 380 361 363
23823 2 380 361 364
23824 1 362 361 363
23825 1 362 361 364
23826 1 363 361 364
23827 1 379 362 380
23828 1 379 362 361
23829 2 379 362 363
23830 3 379 362 364
23831 2 379 362 399
23832 3 379 362 381
23833 4 379 362 383
23834 1 379 362 480
23835 1 379 362 461
23836 3 379 362 464
23837 3 379 362 481
23838 1 380 362 361
23839 3 380 362 363
23840 2 380 362 364
23841 1 380 362 399
23842 1 380 362 381
23843 3 380 362 383
23844 2 380 362 480
23845 3 380 362 461
23846 4 380 362 464
23847 3 380 362 481
23848 1 361 362 363
23849 1 361 362 364
23850 3 361 362 399
23851 2 361 362 381
23852 3 361 362 383
23853 3 361 362 480
23854 2 361 362 461
23855 3 361 362 464
23856 4 361 362 481
23857 1 363 362 364
23858 4 363 362 399
23859 3 363 362 381
23860 2 363 362 383
23861 3 363 362 480
23862 1 363 362 461
23863 1 363 362 464
23864 3 363 362 481
23865 3 364 362 399
23866 1 364 362 381
23867 1 364 362 383
23868 4 364 362 480
23869 3 364 362 461
23870 2 364 362 464
23871 3 364 362 481
23872 1 399 362 381
23873 2 399 362 383
23874 1 399 362 480
23875 3 399 362 461
23876 3 399 362 464
23877 1 399 362 481
23878 1 381 362 383
23879 3 381 362 480
23880 4 381 362 461
23881 3 381 362 464
23882 2 381 362 481
23883 3 383 362 480
23884 3 383 362 461
23885 1 383 362 464
23886 1 383 362 481
23887 1 480 362 461
23888 2 480 362 464
23889 1 480 362 481
23890 1 461 362 464
23891 2 461 362 481
23892 1 464 362 481
23893 1 342 363 344
23894 2 342 363 346
23895 1 342 363 361
23896 2 342 363 362
23897 3 342 363 364
23898 3 342 363 365
23899 4 342 363 366
23900 1 342 363 444
23901 1 342 363 461
23902 3 342 363 464
23903 3 342 363 465
23904 1 344 363 346
23905 1 344 363 361
23906 3 344 363 362
23907 2 344 363 364
23908 1 344 363 365
23909 3 344 363 366
23910 2 344 363 444
23911 3 344 363 461
23912 4 344 363 464
23913 3 344 363 465
23914 3 346 363 361
23915 4 346 363 362
23916 3 346 363 364
23917 1 346 363 365
23918 2 346 363 366
23919 1 346 363 444
23920 3 346 363 461
23921 3 346 363 464
23922 1 346 363 465
23923 1 361 363 362
23924 1 361 363 364
23925 2 361 363 365
23926 3 361 363 366
23927 3 361 363 444
23928 2 361 363 461
23929 3 361 363 464
23930 4 361 363 465
23931 1 362 363 364
23932 3 362 363 365
23933 2 362 363 366
23934 3 362 363 444
23935 1 362 363 461
23936 1 362 363 464
23937 3 362 363 465
23938 1 364 363 365
23939 1 364 363 366
23940 4 364 363 444
23941 3 364 363 461
23942 2 364 363 464
23943 3 364 363 465
23944 1 365 363 366
23945 3 365 363 444
23946 4 365 363 461
23947 3 365 363 464
23948 2 365 363 465
23949 3 366 363 444
23950 3 366 363 461
23951 1 366 363 464
23952 1 366 363 465
23953 1 444 363 461
23954 2 444 363 464
23955 1 444 363 465
23956 1 461 363 464
23957 2 461 363 465
23958 1 464 363 465
23959 1 262 364 263
23960 2 262 364 266
23961 1 262 364 283
23962 1 262 364 361
23963 2 262 364 362
23964 3 262 364 363
23965 3 262 364 365
23966 4 262 364 366
23967 1 262 364 381
23968 3 262 364 383
23969 3 262 364 385
23970 1 263 364 266
23971 2 263 364 283
23972 1 263 364 361
23973 3 263 364 362
23974 2 263 364 363
23975 1 263 364 365
23976 3 263 364 366
23977 3 263 364 381
23978 4 263 364 383
23979 3 263 364 385
23980 1 266 364 283
23981 3 266 364 361
23982 4 266 364 362
23983 3 266 364 363
23984 1 266 364 365
23985 2 266 364 366
23986 3 266 364 381
23987 3 266 364 383
23988 1 266 364 385
23989 3 283 364 361
23990 3 283 364 362
23991 4 283 364 363
23992 3 283 364 365
23993 3 283 364 366
23994 1 283 364 381
23995 2 283 364 383
23996 1 283 364 385
23997 1 361 364 362
23998 1 361 364 363
23999 2 361 364 365
24000 3 361 364 366
24001 2 361 364 381
24002 3 361 364 383
24003 4 361 364 385
24004 1 362 364 363
24005 3 362 364 365
24006 2 362 364 366
24007 1 362 364 381
24008 1 362 364 383
24009 3 362 364 385
24010 1 363 364 365
24011 1 363 364 366
24012 3 363 364 381
24013 2 363 364 383
24014 3 363 364 385
24015 1 365 364 366
24016 4 365 364 381
24017 3 365 364 383
24018 2 365 364 385
24019 3 366 364 381
24020 1 366 364 383
24021 1 366 364 385
24022 1 381 364 383
24023 2 381 364 385
24024 1 383 364 385
24025 1 246 365 263
24026 2 246 365 266
24027 1 246 365 267
24028 1 246 365 344
24029 2 246 365 346
24030 1 246 365 348
24031 3 246 365 363
24032 3 246 365 364
24033 4 246 365 366
24034 3 246 365 367
24035 3 246 365 368
24036 1 263 365 266
24037 2 263 365 267
24038 1 263 365 344
24039 3 263 365 346
24040 3 263 365 348
24041 2 263 365 363
24042 1 263 365 364
24043 3 263 365 366
24044 4 263 365 367
24045 3 263 365 368
24046 1 266 365 267
24047 3 266 365 344
24048 4 266 365 346
24049 3 266 365 348
24050 3 266 365 363
24051 1 266 365 364
24052 2 266 365 366
24053 3 266 365 367
24054 1 266 365 368
24055 3 267 365 344
24056 3 267 365 346
24057 1 267 365 348
24058 4 267 365 363
24059 3 267 365 364
24060 3 267 365 366
24061 2 267 365 367
24062 1 267 365 368
24063 1 344 365 346
24064 2 344 365 348
24065 1 344 365 363
24066 2 344 365 364
24067 3 344 365 366
24068 3 344 365 367
24069 4 344 365 368
24070 1 346 365 348
24071 1 346 365 363
24072 3 346 365 364
24073 2 346 365 366
24074 1 346 365 367
24075 3 346 365 368
24076 3 348 365 363
24077 4 348 365 364
24078 3 348 365 366
24079 1 348 365 367
24080 2 348 365 368
24081 1 363 365 364
24082 1 363 365 366
24083 2 363 365 367
24084 3 363 365 368
24085 1 364 365 366
24086 3 364 365 367
24087 2 364 365 368
24088 1 366 365 367
24089 1 366 365 368
24090 1 367 365 368
24091 1 363 366 364
24092 1 363 366 365
24093 2 363 366 367
24094 3 363 366 368
24095 2 363 366 383
24096 3 363 366 385
24097 4 363 366 387
24098 1 363 366 464
24099 1 363 366 465
24100 3 363 366 468
24101 3 363 366 485
24102 1 364 366 365
24103 3 364 366 367
24104 2 364 366 368
24105 1 364 366 383
24106 1 364 366 385
24107 3 364 366 387
24108 2 364 366 464
24109 3 364 366 465
24110 4 364 366 468
24111 3 364 366 485
24112 1 365 366 367
24113 1 365 366 368
24114 3 365 366 383
24115 2 365 366 385
24116 3 365 366 387
24117 3 365 366 464
24118 2 365 366 465
24119 3 365 366 468
24120 4 365 366 485
24121 1 367 366 368
24122 4 367 366 383
24123 3 367 366 385
24124 2 367 366 387
24125 3 367 366 464
24126 1 367 366 465
24127 1 367 366 468
24128 3 367 366 485
24129 3 368 366 383
24130 1 368 366 385
24131 1 368 366 387
24132 4 368 366 464
24133 3 368 366 465
24134 2 368 366 468
24135 3 368 366 485
24136 1 383 366 385
24137 2 383 366 387
24138 1 383 366 464
24139 3 383 366 465
24140 3 383 366 468
24141 1 383 366 485
24142 1 385 366 387
24143 3 385 366 464
24144 4 385 366 465
24145 3 385 366 468
24146 2 385 366 485
24147 3 387 366 464
24148 3 387 366 465
24149 1 387 366 468
24150 1 387 366 485
24151 1 464 366 465
24152 2 464 366 468
24153 1 464 366 485
24154 1 465 366 468
24155 2 465 366 485
24156 1 468 366 485
24157 1 346 367 348
24158 2 346 367 350
24159 1 346 367 365
24160 2 346 367 366
24161 3 346 367 368
24162 3 346 367 369
24163 4 346 367 370
24164 1 346 367 448
24165 1 346 367 465
24166 3 346 367 468
24167 3 346 367 469
24168 1 348 367 350
24169 1 348 367 365
24170 3 348 367 366
24171 2 348 367 368
24172 1 348 367 369
24173 3 348 367 370
24174 2 348 367 448
24175 3 348 367 465
24176 4 348 367 468
24177 3 348 367 469
24178 3 350 367 365
24179 4 350 367 366
24180 3 350 367 368
24181 1 350 367 369
24182 2 350 367 370
24183 1 350 367 448
24184 3 350 367 465
24185 3 350 367 468
24186 1 350 367 469
24187 1 365 367 366
24188 1 365 367 368
24189 2 365 367 369
24190 3 365 367 370
24191 3 365 367 448
24192 2 365 367 465
24193 3 365 367 468
24194 4 365 367 469
24195 1 366 367 368
24196 3 366 367 369
24197 2 366 367 370
24198 3 366 367 448
24199 1 366 367 465
24200 1 366 367 468
24201 3 366 367 469
24202 1 368 367 369
24203 1 368 367 370
24204 4 368 367 448
24205 3 368 367 465
24206 2 368 367 468
24207 3 368 367 469
24208 1 369 367 370
24209 3 369 367 448
24210 4 369 367 465
24211 3 369 367 468
24212 2 369 367 469
24213 3 370 367 448
24214 3 370 367 465
24215 1 370 367 468
24216 1 370 367 469
24217 1 448 367 465
24218 2 448 367 468
24219 1 448 367 469
24220 1 465 367 468
24221 2 465 367 469
24222 1 468 367 469
24223 1 266 368 267
24224 2 266 368 270
24225 1 266 368 287
24226 1 266 368 365
24227 2 266 368 366
24228 3 266 368 367
24229 3 266 368 369
24230 4 266 368 370
24231 1 266 368 385
24232 3 266 368 387
24233 3 266 368 389
24234 1 267 368 270
24235 2 267 368 287
24236 1 267 368 365
24237 3 267 368 366
24238 2 267 368 367
24239 1 267 368 369
24240 3 267 368 370
24241 3 267 368 385
24242 4 267 368 387
24243 3 267 368 389
24244 1 270 368 287
24245 3 270 368 365
24246 4 270 368 366
24247 3 270 368 367
24248 1 270 368 369
24249 2 270 368 370
24250 3 270 368 385
24251 3 270 368 387
24252 1 270 368 389
24253 3 287 368 365
24254 3 287 368 366
24255 4 287 368 367
24256 3 287 368 369
24257 3 287 368 370
24258 1 287 368 385
24259 2 287 368 387
24260 1 287 368 389
24261 1 365 368 366
24262 1 365 368 367
24263 2 365 368 369
24264 3 365 368 370
24265 2 365 368 385
24266 3 365 368 387
24267 4 365 368 389
24268 1 366 368 367
24269 3 366 368 369
24270 2 366 368 370
24271 1 366 368 385
24272 1 366 368 387
24273 3 366 368 389
24274 1 367 368 369
24275 1 367 368 370
24276 3 367 368 385
24277 2 367 368 387
24278 3 367 368 389
24279 1 369 368 370
24280 4 369 368 385
24281 3 369 368 387
24282 2 369 368 389
24283 3 370 368 385
24284 1 370 368 387
24285 1 370 368 389
24286 1 385 368 387
24287 2 385 368 389
24288 1 387 368 389
24289 1 250 369 267
24290 2 250 369 270
24291 1 250 369 271
24292 1 250 369 348
24293 2 250 369 350
24294 1 250 369 352
24295 3 250 369 367
24296 3 250 369 368
24297 4 250 369 370
24298 3 250 369 371
24299 3 250 369 372
24300 1 267 369 270
24301 2 267 369 271
24302 1 267 369 348
24303 3 267 369 350
24304 3 267 369 352
24305 2 267 369 367
24306 1 267 369 368
24307 3 267 369 370
24308 4 267 369 371
24309 3 267 369 372
24310 1 270 369 271
24311 3 270 369 348
24312 4 270 369 350
24313 3 270 369 352
24314 3 270 369 367
24315 1 270 369 368
24316 2 270 369 370
24317 3 270 369 371
24318 1 270 369 372
24319 3 271 369 348
24320 3 271 369 350
24321 1 271 369 352
24322 4 271 369 367
24323 3 271 369 368
24324 3 271 369 370
24325 2 271 369 371
24326 1 271 369 372
24327 1 348 369 350
24328 2 348 369 352
24329 1 348 369 367
24330 2 348 369 368
24331 3 348 369 370
24332 3 348 369 371
24333 4 348 369 372
24334 1 350 369 352
24335 1 350 369 367
24336 3 350 369 368
24337 2 350 369 370
24338 1 350 369 371
24339 3 350 369 372
24340 3 352 369 367
24341 4 352 369 368
24342 3 352 369 370
24343 1 352 369 371
24344 2 352 369 372
24345 1 367 369 368
24346 1 367 369 370
24347 2 367 369 371
24348 3 367 369 372
24349 1 368 369 370
24350 3 368 369 371
24351 2 368 369 372
24352 1 370 369 371
24353 1 370 369 372
24354 1 371 369 372
24355 1 367 370 368
24356 1 367 370 369
24357 2 367 370 371
24358 3 367 370 372
24359 2 367 370 387
24360 3 367 370 389
24361 4 367 370 391
24362 1 367 370 468
24363 1 367 370 469
24364 3 367 370 472
24365 3 367 370 489
24366 1 368 370 369
24367 3 368 370 371
24368 2 368 370 372
24369 1 368 370 387
24370 1 368 370 389
24371 3 368 370 391
24372 2 368 370 468
24373 3 368 370 469
24374 4 368 370 472
24375 3 368 370 489
24376 1 369 370 371
24377 1 369 370 372
24378 3 369 370 387
24379 2 369 370 389
24380 3 369 370 391
24381 3 369 370 468
24382 2 369 370 469
24383 3 369 370 472
24384 4 369 370 489
24385 1 371 370 372
24386 4 371 370 387
24387 3 371 370 389
24388 2 371 370 391
24389 3 371 370 468
24390 1 371 370 469
24391 1 371 370 472
24392 3 371 370 489
24393 3 372 370 387
24394 1 372 370 389
24395 1 372 370 391
24396 4 372 370 468
24397 3 372 370 469
24398 2 372 370 472
24399 3 372 370 489
24400 1 387 370 389
24401 2 387 370 391
24402 1 387 370 468
24403 3 387 370 469
24404 3 387 370 472
24405 1 387 370 489
24406 1 389 370 391
24407 3 389 370 468
24408 4 389 370 469
24409 3 389 370 472
24410 2 389 370 489
24411 3 391 370 468
24412 3 391 370 469
24413 1 391 370 472
24414 1 391 370 489
24415 1 468 370 469
24416 2 468 370 472
24417 1 468 370 489
24418 1 469 370 472
24419 2 469 370 489
24420 1 472 370 489
24421 1 350 371 352
24422 2 350 371 354
24423 1 350 371 369
24424 2 350 371 370
24425 3 350 371 372
24426 3 350 371 373
24427 4 350 371 374
24428 1 350 371 452
24429 1 350 371 469
24430 3 350 371 472
24431 3 350 371 473
24432 1 352 371 354
24433 1 352 371 369
24434 3 352 371 370
24435 2 352 371 372
24436 1 352 371 373
24437 3 352 371 374
24438 2 352 371 452
24439 3 352 371 469
24440 4 352 371 472
24441 3 352 371 473
24442 3 354 371 369
24443 4 354 371 370
24444 3 354 371 372
24445 1 354 371 373
24446 2 354 371 374
24447 1 354 371 452
24448 3 354 371 469
24449 3 354 371 472
24450 1 354 371 473
24451 1 369 371 370
24452 1 369 371 372
24453 2 369 371 373
24454 3 369 371 374
24455 3 369 371 452
24456 2 369 371 469
24457 3 369 371 472
24458 4 369 371 473
24459 1 370 371 372
24460 3 370 371 373
24461 2 370 371 374
24462 3 370 371 452
24463 1 370 371 469
24464 1 370 371 472
24465 3 370 371 473
24466 1 372 371 373
24467 1 372 371 374
24468 4 372 371 452
24469 3 372 371 469
24470 2 372 371 472
24471 3 372 371 473
24472 1 373 371 374
24473 3 373 371 452
24474 4 373 371 469
24475 3 373 371 472
24476 2 373 371 473
24477 3 374 371 452
24478 3 374 371 469
24479 1 374 371 472
24480 1 374 371 473
24481 1 452 371 469
24482 2 452 371 472
24483 1 452 371 473
24484 1 469 371 472
24485 2 469 371 473
24486 1 472 371 473
24487 1 270 372 271
24488 2 270 372 274
24489 1 270 372 291
24490 1 270 372 369
24491 2 270 372 370
24492 3 270 372 371
24493 3 270 372 373
24494 4 270 372 374
24495 1 270 372 389
24496 3 270 372 391
24497 3 270 372 393
24498 1 271 372 274
24499 2 271 372 291
24500 1 271 372 369
24501 3 271 372 370
24502 2 271 372 371
24503 1 271 372 373
24504 3 271 372 374
24505 3 271 372 389
24506 4 271 372 391
24507 3 271 372 393
24508 1 274 372 291
24509 3 274 372 369
24510 4 274 372 370
24511 3 274 372 371
24512 1 274 372 373
24513 2 274 372 374
24514 3 274 372 389
24515 3 274 372 391
24516 1 274 372 393
24517 3 291 372 369
24518 3 291 372 370
24519 4 291 372 371
24520 3 291 372 373
24521 3 291 372 374
24522 1 291 372 389
24523 2 291 372 391
24524 1 291 372 393
24525 1 369 372 370
24526 1 369 372 371
24527 2 369 372 373
24528 3 369 372 374
24529 2 369 372 389
24530 3 369 372 391
24531 4 369 372 393
24532 1 370 372 371
24533 3 370 372 373
24534 2 370 372 374
24535 1 370 372 389
24536 1 370 372 391
24537 3 370 372 393
24538 1 371 372 373
24539 1 371 372 374
24540 3 371 372 389
24541 2 371 372 391
24542 3 371 372 393
24543 1 373 372 374
24544 4 373 372 389
24545 3 373 372 391
24546 2 373 372 393
24547 3 374 372 389
24548 1 374 372 391
24549 1 374 372 393
24550 1 389 372 391
24551 2 389 372 393
24552 1 391 372 393
24553 1 254 373 271
24554 2 254 373 274
24555 1 254 373 275
24556 1 254 373 352
24557 2 254 373 354
24558 1 254 373 356
24559 3 254 373 371
24560 3 254 373 372
24561 4 254 373 374
24562 3 254 373 375
24563 3 254 373 376
24564 1 271 373 274
24565 2 271 373 275
24566 1 271 373 352
24567 3 271 373 354
24568 3 271 373 356
24569 2 271 373 371
24570 1 271 373 372
24571 3 271 373 374
24572 4 271 373 375
24573 3 271 373 376
24574 1 274 373 275
24575 3 274 373 352
24576 4 274 373 354
24577 3 274 373 356
24578 3 274 373 371
24579 1 274 373 372
24580 2 274 373 374
24581 3 274 373 375
24582 1 274 373 376
24583 3 275 373 352
24584 3 275 373 354
24585 1 275 373 356
24586 4 275 373 371
24587 3 275 373 372
24588 3 275 373 374
24589 2 275 373 375
24590 1 275 373 376
24591 1 352 373 354
24592 2 352 373 356
24593 1 352 373 371
24594 2 352 373 372
24595 3 352 373 374
24596 3 352 373 375
24597 4 352 373 376
24598 1 354 373 356
24599 1 354 373 371
24600 3 354 373 372
24601 2 354 373 374
24602 1 354 373 375
24603 3 354 373 376
24604 3 356 373 371
24605 4 356 373 372
24606 3 356 373 374
24607 1 356 373 375
24608 2 356 373 376
24609 1 371 373 372
24610 1 371 373 374
24611 2 371 373 375
24612 3 371 373 376
24613 1 372 373 374
24614 3 372 373 375
24615 2 372 373 376
24616 1 374 373 375
24617 1 374 373 376
24618 1 375 373 376
24619 1 371 374 372
24620 1 371 374 373
24621 2 371 374 375
24622 3 371 374 376
24623 2 371 374 391
24624 3 371 374 393
24625 4 371 374 395
24626 1 371 374 472
24627 1 371 374 473
24628 3 371 374 476
24629 3 371 374 493
24630 1 372 374 373
24631 3 372 374 375
24632 2 372 374 376
24633 1 372 374 391
24634 1 372 374 393
24635 3 372 374 395
24636 2 372 374 472
24637 3 372 374 473
24638 4 372 374 476
24639 3 372 374 493
24640 1 373 374 375
24641 1 373 374 376
24642 3 373 374 391
24643 2 373 374 393
24644 3 373 374 395
24645 3 373 374 472
24646 2 373 374 473
24647 3 373 374 476
24648 4 373 374 493
24649 1 375 374 376
24650 4 375 374 391
24651 3 375 374 393
24652 2 375 374 395
24653 3 375 374 472
24654 1 375 374 473
24655 1 375 374 476
24656 3 375 374 493
24657 3 376 374 391
24658 1 376 374 393
24659 1 376 374 395
24660 4 376 374 472
24661 3 376 374 473
24662 2 376 374 476
24663 3 376 374 493
24664 1 391 374 393
24665 2 391 374 395
24666 1 391 374 472
24667 3 391 374 473
24668 3 391 374 476
24669 1 391 374 493
24670 1 393 374 395
24671 3 393 374 472
24672 4 393 374 473
24673 3 393 374 476
24674 2 393 374 493
24675 3 395 374 472
24676 3 395 374 473
24677 1 395 374 476
24678 1 395 374 493
24679 1 472 374 473
24680 2 472 374 476
24681 1 472 374 493
24682 1 473 374 476
24683 2 473 374 493
24684 1 476 374 493
24685 1 354 375 356
24686 2 354 375 358
24687 1 354 375 373
24688 2 354 375 374
24689 3 354 375 376
24690 3 354 375 377
24691 4 354 375 378
24692 1 354 375 456
24693 1 354 375 473
24694 3 354 375 476
24695 3 354 375 477
24696 1 356 375 358
24697 1 356 375 373
24698 3 356 375 374
24699 2 356 375 376
24700 1 356 375 377
24701 3 356 375 378
24702 2 356 375 456
24703 3 356 375 473
24704 4 356 375 476
24705 3 356 375 477
24706 3 358 375 373
24707 4 358 375 374
24708 3 358 375 376
24709 1 358 375 377
24710 2 358 375 378
24711 1 358 375 456
24712 3 358 375 473
24713 3 358 375 476
24714 1 358 375 477
24715 1 373 375 374
24716 1 373 375 376
24717 2 373 375 377
24718 3 373 375 378
24719 3 373 375 456
24720 2 373 375 473
24721 3 373 375 476
24722 4 373 375 477
24723 1 374 375 376
24724 3 374 375 377
24725 2 374 375 378
24726 3 374 375 456
24727 1 374 375 473
24728 1 374 375 476
24729 3 374 375 477
24730 1 376 375 377
24731 1 376 375 378
24732 4 376 375 456
24733 3 376 375 473
24734 2 376 375 476
24735 3 376 375 477
24736 1 377 375 378
24737 3 377 375 456
24738 4 377 375 473
24739 3 377 375 476
24740 2 377 375 477
24741 3 378 375 456
24742 3 378 375 473
24743 1 378 375 476
24744 1 378 375 477
24745 1 456 375 473
24746 2 456 375 476
24747 1 456 375 477
24748 1 473 375 476
24749 2 473 375 477
24750 1 476 375 477
24751 1 274 376 275
24752 2 274 376 278
24753 1 274 376 295
24754 1 274 376 373
24755 2 274 376 374
24756 3 274 376 375
24757 3 274 376 377
24758 4 274 376 378
24759 1 274 376 393
24760 3 274 376 395
24761 3 274 376 397
24762 1 275 376 278
24763 2 275 376 295
24764 1 275 376 373
24765 3 275 376 374
24766 2 275 376 375
24767 1 275 376 377
24768 3 275 376 378
24769 3 275 376 393
24770 4 275 376 395
24771 3 275 376 397
24772 1 278 376 295
24773 3 278 376 373
24774 4 278 376 374
24775 3 278 376 375
24776 1 278 376 377
24777 2 278 376 378
24778 3 278 376 393
24779 3 278 376 395
24780 1 278 376 397
24781 3 295 376 373
24782 3 295 376 374
24783 4 295 376 375
24784 3 295 376 377
24785 3 295 376 378
24786 1 295 376 393
24787 2 295 376 395
24788 1 295 376 397
24789 1 373 376 374
24790 1 373 376 375
24791 2 373 376 377
24792 3 373 376 378
24793 2 373 376 393
24794 3 373 376 395
24795 4 373 376 397
24796 1 374 376 375
24797 3 374 376 377
24798 2 374 376 378
24799 1 374 376 393
24800 1 374 376 395
24801 3 374 376 397
24802 1 375 376 377
24803 1 375 376 378
24804 3 375 376 393
24805 2 375 376 395
24806 3 375 376 397
24807 1 377 376 378
24808 4 377 376 393
24809 3 377 376 395
24810 2 377 376 397
24811 3 378 376 393
24812 1 378 376 395
24813 1 378 376 397
24814 1 393 376 395
24815 2 393 376 397
24816 1 395 376 397
24817 1 258 377 275
24818 2 258 377 278
24819 1 258 377 279
24820 1 258 377 356
24821 2 258 377 358
24822 1 258 377 360
24823 3 258 377 375
24824 3 258 377 376
24825 4 258 377 378
24826 3 258 377 379
24827 3 258 377 380
24828 1 275 377 278
24829 2 275 377 279
24830 1 275 377 356
24831 3 275 377 358
24832 3 275 377 360
24833 2 275 377 375
24834 1 275 377 376
24835 3 275 377 378
24836 4 275 377 379
24837 3 275 377 380
24838 1 278 377 279
24839 3 278 377 356
24840 4 278 377 358
24841 3 278 377 360
24842 3 278 377 375
24843 1 278 377 376
24844 2 278 377 378
24845 3 278 377 379
24846 1 278 377 380
24847 3 279 377 356
24848 3 279 377 358
24849 1 279 377 360
24850 4 279 377 375
24851 3 279 377 376
24852 3 279 377 378
24853 2 279 377 379
24854 1 279 377 380
24855 1 356 377 358
24856 2 356 377 360
24857 1 356 377 375
24858 2 356 377 376
24859 3 356 377 378
24860 3 356 377 379
24861 4 356 377 380
24862 1 358 377 360
24863 1 358 377 375
24864 3 358 377 376
24865 2 358 377 378
24866 1 358 377 379
24867 3 358 377 380
24868 3 360 377 375
24869 4 360 377 376
24870 3 360 377 378
24871 1 360 377 379
24872 2 360 377 380
24873 1 375 377 376
24874 1 375 377 378
24875 2 375 377 379
24876 3 375 377 380
24877 1 376 377 378
24878 3 376 377 379
24879 2 376 377 380
24880 1 378 377 379
24881 1 378 377 380
24882 1 379 377 380
24883 1 375 378 376
24884 1 375 378 377
24885 2 375 378 379
24886 3 375 378 380
24887 2 375 378 395
24888 3 375 378 397
24889 4 375 378 399
24890 1 375 378 476
24891 1 375 378 477
24892 3 375 378 480
24893 3 375 378 497
24894 1 376 378 377
24895 3 376 378 379
24896 2 376 378 380
24897 1 376 378 395
24898 1 376 378 397
24899 3 376 378 399
24900 2 376 378 476
24901 3 376 378 477
24902 4 376 378 480
24903 3 376 378 497
24904 1 377 378 379
24905 1 377 378 380
24906 3 377 378 395
24907 2 377 378 397
24908 3 377 378 399
24909 3 377 378 476
24910 2 377 378 477
24911 3 377 378 480
24912 4 377 378 497
24913 1 379 378 380
24914 4 379 378 395
24915 3 379 378 397
24916 2 379 378 399
24917 3 379 378 476
24918 1 379 378 477
24919 1 379 378 480
24920 3 379 378 497
24921 3 380 378 395
24922 1 380 378 397
24923 1 380 378 399
24924 4 380 378 476
24925 3 380 378 477
24926 2 380 378 480
24927 3 380 378 497
24928 1 395 378 397
24929 2 395 378 399
24930 1 395 378 476
24931 3 395 378 477
24932 3 395 378 480
24933 1 395 378 497
24934 1 397 378 399
24935 3 397 378 476
24936 4 397 378 477
24937 3 397 378 480
24938 2 397 378 497
24939 3 399 378 476
24940 3 399 378 477
24941 1 399 378 480
24942 1 399 378 497
24943 1 476 378 477
24944 2 476 378 480
24945 1 476 378 497
24946 1 477 378 480
24947 2 477 378 497
24948 1 480 378 497
24949 1 358 379 360
24950 2 358 379 342
24951 1 358 379 377
24952 2 358 379 378
24953 3 358 379 380
24954 3 358 379 361
24955 4 358 379 362
24956 1 358 379 460
24957 1 358 379 477
24958 3 358 379 480
24959 3 358 379 461
24960 1 360 379 342
24961 1 360 379 377
24962 3 360 379 378
24963 2 360 379 380
24964 1 360 379 361
24965 3 360 379 362
24966 2 360 379 460
24967 3 360 379 477
24968 4 360 379 480
24969 3 360 379 461
24970 3 342 379 377
24971 4 342 379 378
24972 3 342 379 380
24973 1 342 379 361
24974 2 342 379 362
24975 1 342 379 460
24976 3 342 379 477
24977 3 342 379 480
24978 1 342 379 461
24979 1 377 379 378
24980 1 377 379 380
24981 2 377 379 361
24982 3 377 379 362
24983 3 377 379 460
24984 2 377 379 477
24985 3 377 379 480
24986 4 377 379 461
24987 1 378 379 380
24988 3 378 379 361
24989 2 378 379 362
24990 3 378 379 460
24991 1 378 379 477
24992 1 378 379 480
24993 3 378 379 461
24994 1 380 379 361
24995 1 380 379 362
24996 4 380 379 460
24997 3 380 379 477
24998 2 380 379 480
24999 3 380 379 461
25000 1 361 379 362
25001 3 361 379 460
25002 4 361 379 477
25003 3 361 379 480
25004 2 361 379 461
25005 3 362 379 460
25006 3 362 379 477
25007 1 362 379 480
25008 1 362 379 461
25009 1 460 379 477
25010 2 460 379 480
25011 1 460 379 461
25012 1 477 379 480
25013 2 477 379 461
25014 1 480 379 461
25015 1 278 380 279
25016 2 278 380 262
25017 1 278 380 299
25018 1 278 380 377
25019 2 278 380 378
25020 3 278 380 379
25021 3 278 380 361
25022 4 278 380 362
25023 1 278 380 397
25024 3 278 380 399
25025 3 278 380 381
25026 1 279 380 262
25027 2 279 380 299
25028 1 279 380 377
25029 3 279 380 378
25030 2 279 380 379
25031 1 279 380 361
25032 3 279 380 362
25033 3 279 380 397
25034 4 279 380 399
25035 3 279 380 381
25036 1 262 380 299
25037 3 262 380 377
25038 4 262 380 378
25039 3 262 380 379
25040 1 262 380 361
25041 2 262 380 362
25042 3 262 380 397
25043 3 262 380 399
25044 1 262 380 381
25045 3 299 380 377
25046 3 299 380 378
25047 4 299 380 379
25048 3 299 380 361
25049 3 299 380 362
25050 1 299 380 397
25051 2 299 380 399
25052 1 299 380 381
25053 1 377 380 378
25054 1 377 380 379
25055 2 377 380 361
25056 3 377 380 362
25057 2 377 380 397
25058 3 377 380 399
25059 4 377 380 381
25060 1 378 380 379
25061 3 378 380 361
25062 2 378 380 362
25063 1 378 380 397
25064 1 378 380 399
25065 3 378 380 381
25066 1 379 380 361
25067 1 379 380 362
25068 3 379 380 397
25069 2 379 380 399
25070 3 379 380 381
25071 1 361 380 362
25072 4 361 380 397
25073 3 361 380 399
25074 2 361 380 381
25075 3 362 380 397
25076 1 362 380 399
25077 1 362 380 381
25078 1 397 380 399
25079 2 397 380 381
25080 1 399 380 381
25081 1 262 381 299
25082 2 262 381 282
25083 1 262 381 283
25084 1 262 381 380
25085 2 262 381 362
25086 1 262 381 364
25087 3 262 381 399
25088 3 262 381 400
25089 4 262 381 382
25090 3 262 381 383
25091 3 262 381 384
25092 1 299 381 282
25093 2 299 381 283
25094 1 299 381 380
25095 3 299 381 362
25096 3 299 381 364
25097 2 299 381 399
25098 1 299 381 400
25099 3 299 381 382
25100 4 299 381 383
25101 3 299 381 384
25102 1 282 381 283
25103 3 282 381 380
25104 4 282 381 362
25105 3 282 381 364
25106 3 282 381 399
25107 1 282 381 400
25108 2 282 381 382
25109 3 282 381 383
25110 1 282 381 384
25111 3 283 381 380
25112 3 283 381 362
25113 1 283 381 364
25114 4 283 381 399
25115 3 283 381 400
25116 3 283 381 382
25117 2 283 381 383
25118 1 283 381 384
25119 1 380 381 362
25120 2 380 381 364
25121 1 380 381 399
25122 2 380 381 400
25123 3 380 381 382
25124 3 380 381 383
25125 4 380 381 384
25126 1 362 381 364
25127 1 362 381 399
25128 3 362 381 400
25129 2 362 381 382
25130 1 362 381 383
25131 3 362 381 384
25132 3 364 381 399
25133 4 364 381 400
25134 3 364 381 382
25135 1 364 381 383
25136 2 364 381 384
25137 1 399 381 400
25138 1 399 381 382
25139 2 399 381 383
25140 3 399 381 384
25141 1 400 381 382
25142 3 400 381 383
25143 2 400 381 384
25144 1 382 381 383
25145 1 382 381 384
25146 1 383 381 384
25147 1 399 382 400
25148 1 399 382 381
25149 2 399 382 383
25150 3 399 382 384
25151 2 399 382 319
25152 3 399 382 301
25153 4 399 382 303
25154 1 399 382 500
25155 1 399 382 481
25156 3 399 382 484
25157 3 399 382 401
25158 1 400 382 381
25159 3 400 382 383
25160 2 400 382 384
25161 1 400 382 319
25162 1 400 382 301
25163 3 400 382 303
25164 2 400 382 500
25165 3 400 382 481
25166 4 400 382 484
25167 3 400 382 401
25168 1 381 382 383
25169 1 381 382 384
25170 3 381 382 319
25171 2 381 382 301
25172 3 381 382 303
25173 3 381 382 500
25174 2 381 382 481
25175 3 381 382 484
25176 4 381 382 401
25177 1 383 382 384
25178 4 383 382 319
25179 3 383 382 301
25180 2 383 382 303
25181 3 383 382 500
25182 1 383 382 481
25183 1 383 382 484
25184 3 383 382 401
25185 3 384 382 319
25186 1 384 382 301
25187 1 384 382 303
25188 4 384 382 500
25189 3 384 382 481
25190 2 384 382 484
25191 3 384 382 401
25192 1 319 382 301
25193 2 319 382 303
25194 1 319 382 500
25195 3 319 382 481
25196 3 319 382 484
25197 1 319 382 401
25198 1 301 382 303
25199 3 301 382 500
25200 4 301 382 481
25201 3 301 382 484
25202 2 301 382 401
25203 3 303 382 500
25204 3 303 382 481
25205 1 303 382 484
25206 1 303 382 401
25207 1 500 382 481
25208 2 500 382 484
25209 1 500 382 401
25210 1 481 382 484
25211 2 481 382 401
25212 1 484 382 401
25213 1 362 383 364
25214 2 362 383 366
25215 1 362 383 381
25216 2 362 383 382
25217 3 362 383 384
25218 3 362 383 385
25219 4 362 383 386
25220 1 362 383 464
25221 1 362 383 481
25222 3 362 383 484
25223 3 362 383 485
25224 1 364 383 366
25225 1 364 383 381
25226 3 364 383 382
25227 2 364 383 384
25228 1 364 383 385
25229 3 364 383 386
25230 2 364 383 464
25231 3 364 383 481
25232 4 364 383 484
25233 3 364 383 485
25234 3 366 383 381
25235 4 366 383 382
25236 3 366 383 384
25237 1 366 383 385
25238 2 366 383 386
25239 1 366 383 464
25240 3 366 383 481
25241 3 366 383 484
25242 1 366 383 485
25243 1 381 383 382
25244 1 381 383 384
25245 2 381 383 385
25246 3 381 383 386
25247 3 381 383 464
25248 2 381 383 481
25249 3 381 383 484
25250 4 381 383 485
25251 1 382 383 384
25252 3 382 383 385
25253 2 382 383 386
25254 3 382 383 464
25255 1 382 383 481
25256 1 382 383 484
25257 3 382 383 485
25258 1 384 383 385
25259 1 384 383 386
25260 4 384 383 464
25261 3 384 383 481
25262 2 384 383 484
25263 3 384 383 485
25264 1 385 383 386
25265 3 385 383 464
25266 4 385 383 481
25267 3 385 383 484
25268 2 385 383 485
25269 3 386 383 464
25270 3 386 383 481
25271 1 386 383 484
25272 1 386 383 485
25273 1 464 383 481
25274 2 464 383 484
25275 1 464 383 485
25276 1 481 383 484
25277 2 481 383 485
25278 1 484 383 485
25279 1 282 384 283
25280 2 282 384 286
25281 1 282 384 203
25282 1 282 384 381
25283 2 282 384 382
25284 3 282 384 383
25285 3 282 384 385
25286 4 282 384 386
25287 1 282 384 301
25288 3 282 384 303
25289 3 282 384 305
25290 1 283 384 286
25291 2 283 384 203
25292 1 283 384 381
25293 3 283 384 382
25294 2 283 384 383
25295 1 283 384 385
25296 3 283 384 386
25297 3 283 384 301
25298 4 283 384 303
25299 3 283 384 305
25300 1 286 384 203
25301 3 286 384 381
25302 4 286 384 382
25303 3 286 384 383
25304 1 286 384 385
25305 2 286 384 386
25306 3 286 384 301
25307 3 286 384 303
25308 1 286 384 305
25309 3 203 384 381
25310 3 203 384 382
25311 4 203 384 383
25312 3 203 384 385
25313 3 203 384 386
25314 1 203 384 301
25315 2 203 384 303
25316 1 203 384 305
25317 1 381 384 382
25318 1 381 384 383
25319 2 381 384 385
25320 3 381 384 386
25321 2 381 384 301
25322 3 381 384 303
25323 4 381 384 305
25324 1 382 384 383
25325 3 382 384 385
25326 2 382 384 386
25327 1 382 384 301
25328 1 382 384 303
25329 3 382 384 305
25330 1 383 384 385
25331 1 383 384 386
25332 3 383 384 301
25333 2 383 384 303
25334 3 383 384 305
25335 1 385 384 386
25336 4 385 384 301
25337 3 385 384 303
25338 2 385 384 305
25339 3 386 384 301
25340 1 386 384 303
25341 1 386 384 305
25342 1 301 384 303
25343 2 301 384 305
25344 1 303 384 305
25345 1 266 385 283
25346 2 266 385 286
25347 1 266 385 287
25348 1 266 385 364
25349 2 266 385 366
25350 1 266 385 368
25351 3 266 385 383
25352 3 266 385 384
25353 4 266 385 386
25354 3 266 385 387
25355 3 266 385 388
25356 1 283 385 286
25357 2 283 385 287
25358 1 283 385 364
25359 3 283 385 366
25360 3 283 385 368
25361 2 283 385 383
25362 1 283 385 384
25363 3 283 385 386
25364 4 283 385 387
25365 3 283 385 388
25366 1 286 385 287
25367 3 286 385 364
25368 4 286 385 366
25369 3 286 385 368
25370 3 286 385 383
25371 1 286 385 384
25372 2 286 385 386
25373 3 286 385 387
25374 1 286 385 388
25375 3 287 385 364
25376 3 287 385 366
25377 1 287 385 368
25378 4 287 385 383
25379 3 287 385 384
25380 3 287 385 386
25381 2 287 385 387
25382 1 287 385 388
25383 1 364 385 366
25384 2 364 385 368
25385 1 364 385 383
25386 2 364 385 384
25387 3 364 385 386
25388 3 364 385 387
25389 4 364 385 388
25390 1 366 385 368
25391 1 366 385 383
25392 3 366 385 384
25393 2 366 385 386
25394 1 366 385 387
25395 3 366 385 388
25396 3 368 385 383
25397 4 368 385 384
25398 3 368 385 386
25399 1 368 385 387
25400 2 368 385 388
25401 1 383 385 384
25402 1 383 385 386
25403 2 383 385 387
25404 3 383 385 388
25405 1 384 385 386
25406 3 384 385 387
25407 2 384 385 388
25408 1 386 385 387
25409 1 386 385 388
25410 1 387 385 388
25411 1 383 386 384
25412 1 383 386 385
25413 2 383 386 387
25414 3 383 386 388
25415 2 383 386 303
25416 3 383 386 305
25417 4 383 386 307
25418 1 383 386 484
25419 1 383 386 485
25420 3 383 386 488
25421 3 383 386 405
25422 1 384 386 385
25423 3 384 386 387
25424 2 384 386 388
25425 1 384 386 303
25426 1 384 386 305
25427 3 384 386 307
25428 2 384 386 484
25429 3 384 386 485
25430 4 384 386 488
25431 3 384 386 405
25432 1 385 386 387
25433 1 385 386 388
25434 3 385 386 303
25435 2 385 386 305
25436 3 385 386 307
25437 3 385 386 484
25438 2 385 386 485
25439 3 385 386 488
25440 4 385 386 405
25441 1 387 386 388
25442 4 387 386 303
25443 3 387 386 305
25444 2 387 386 307
25445 3 387 386 484
25446 1 387 386 485
25447 1 387 386 488
25448 3 387 386 405
25449 3 388 386 303
25450 1 388 386 305
25451 1 388 386 307
25452 4 388 386 484
25453 3 388 386 485
25454 2 388 386 488
25455 3 388 386 405
25456 1 303 386 305
25457 2 303 386 307
25458 1 303 386 484
25459 3 303 386 485
25460 3 303 386 488
25461 1 303 386 405
25462 1 305 386 307
25463 3 305 386 484
25464 4 305 386 485
25465 3 305 386 488
25466 2 305 386 405
25467 3 307 386 484
25468 3 307 386 485
25469 1 307 386 488
25470 1 307 386 405
25471 1 484 386 485
25472 2 484 386 488
25473 1 484 386 405
25474 1 485 386 488
25475 2 485 386 405
25476 1 488 386 405
25477 1 366 387 368
25478 2 366 387 370
25479 1 366 387 385
25480 2 366 387 386
25481 3 366 387 388
25482 3 366 387 389
25483 4 366 387 390
25484 1 366 387 468
25485 1 366 387 485
25486 3 366 387 488
25487 3 366 387 489
25488 1 368 387 370
25489 1 368 387 385
25490 3 368 387 386
25491 2 368 387 388
25492 1 368 387 389
25493 3 368 387 390
25494 2 368 387 468
25495 3 368 387 485
25496 4 368 387 488
25497 3 368 387 489
25498 3 370 387 385
25499 4 370 387 386
25500 3 370 387 388
25501 1 370 387 389
25502 2 370 387 390
25503 1 370 387 468
25504 3 370 387 485
25505 3 370 387 488
25506 1 370 387 489
25507 1 385 387 386
25508 1 385 387 388
25509 2 385 387 389
25510 3 385 387 390
25511 3 385 387 468
25512 2 385 387 485
25513 3 385 387 488
25514 4 385 387 489
25515 1 386 387 388
25516 3 386 387 389
25517 2 386 387 390
25518 3 386 387 468
25519 1 386 387 485
25520 1 386 387 488
25521 3 386 387 489
25522 1 388 387 389
25523 1 388 387 390
25524 4 388 387 468
25525 3 388 387 485
25526 2 388 387 488
25527 3 388 387 489
25528 1 389 387 390
25529 3 389 387 468
25530 4 389 387 485
25531 3 389 387 488
25532 2 389 387 489
25533 3 390 387 468
25534 3 390 387 485
25535 1 390 387 488
25536 1 390 387 489
25537 1 468 387 485
25538 2 468 387 488
25539 1 468 387 489
25540 1 485 387 488
25541 2 485 387 489
25542 1 488 387 489
25543 1 286 388 287
25544 2 286 388 290
25545 1 286 388 207
25546 1 286 388 385
25547 2 286 388 386
25548 3 286 388 387
25549 3 286 388 389
25550 4 286 388 390
25551 1 286 388 305
25552 3 286 388 307
25553 3 286 388 309
25554 1 287 388 290
25555 2 287 388 207
25556 1 287 388 385
25557 3 287 388 386
25558 2 287 388 387
25559 1 287 388 389
25560 3 287 388 390
25561 3 287 388 305
25562 4 287 388 307
25563 3 287 388 309
25564 1 290 388 207
25565 3 290 388 385
25566 4 290 388 386
25567 3 290 388 387
25568 1 290 388 389
25569 2 290 388 390
25570 3 290 388 305
25571 3 290 388 307
25572 1 290 388 309
25573 3 207 388 385
25574 3 207 388 386
25575 4 207 388 387
25576 3 207 388 389
25577 3 207 388 390
25578 1 207 388 305
25579 2 207 388 307
25580 1 207 388 309
25581 1 385 388 386
25582 1 385 388 387
25583 2 385 388 389
25584 3 385 388 390
25585 2 385 388 305
25586 3 385 388 307
25587 4 385 388 309
25588 1 386 388 387
25589 3 386 388 389
25590 2 386 388 390
25591 1 386 388 305
25592 1 386 388 307
25593 3 386 388 309
25594 1 387 388 389
25595 1 387 388 390
25596 3 387 388 305
25597 2 387 388 307
25598 3 387 388 309
25599 1 389 388 390
25600 4 389 388 305
25601 3 389 388 307
25602 2 389 388 309
25603 3 390 388 305
25604 1 390 388 307
25605 1 390 388 309
25606 1 305 388 307
25607 2 305 388 309
25608 1 307 388 309
25609 1 270 389 287
25610 2 270 389 290
25611 1 270 389 291
25612 1 270 389 368
25613 2 270 389 370
25614 1 270 389 372
25615 3 270 389 387
25616 3 270 389 388
25617 4 270 389 390
25618 3 270 389 391
25619 3 270 389 392
25620 1 287 389 290
25621 2 287 389 291
25622 1 287 389 368
25623 3 287 389 370
25624 3 287 389 372
25625 2 287 389 387
25626 1 287 389 388
25627 3 287 389 390
25628 4 287 389 391
25629 3 287 389 392
25630 1 290 389 291
25631 3 290 389 368
25632 4 290 389 370
25633 3 290 389 372
25634 3 290 389 387
25635 1 290 389 388
25636 2 290 389 390
25637 3 290 389 391
25638 1 290 389 392
25639 3 291 389 368
25640 3 291 389 370
25641 1 291 389 372
25642 4 291 389 387
25643 3 291 389 388
25644 3 291 389 390
25645 2 291 389 391
25646 1 291 389 392
25647 1 368 389 370
25648 2 368 389 372
25649 1 368 389 387
25650 2 368 389 388
25651 3 368 389 390
25652 3 368 389 391
25653 4 368 389 392
25654 1 370 389 372
25655 1 370 389 387
25656 3 370 389 388
25657 2 370 389 390
25658 1 370 389 391
25659 3 370 389 392
25660 3 372 389 387
25661 4 372 389 388
25662 3 372 389 390
25663 1 372 389 391
25664 2 372 389 392
25665 1 387 389 388
25666 1 387 389 390
25667 2 387 389 391
25668 3 387 389 392
25669 1 388 389 390
25670 3 388 389 391
25671 2 388 389 392
25672 1 390 389 391
25673 1 390 389 392
25674 1 391 389 392
25675 1 387 390 388
25676 1 387 390 389
25677 2 387 390 391
25678 3 387 390 392
25679 2 387 390 307
25680 3 387 390 309
25681 4 387 390 311
25682 1 387 390 488
25683 1 387 390 489
25684 3 387 390 492
25685 3 387 390 409
25686 1 388 390 389
25687 3 388 390 391
25688 2 388 390 392
25689 1 388 390 307
25690 1 388 390 309
25691 3 388 390 311
25692 2 388 390 488
25693 3 388 390 489
25694 4 388 390 492
25695 3 388 390 409
25696 1 389 390 391
25697 1 389 390 392
25698 3 389 390 307
25699 2 389 390 309
25700 3 389 390 311
25701 3 389 390 488
25702 2 389 390 489
25703 3 389 390 492
25704 4 389 390 409
25705 1 391 390 392
25706 4 391 390 307
25707 3 391 390 309
25708 2 391 390 311
25709 3 391 390 488
25710 1 391 390 489
25711 1 391 390 492
25712 3 391 390 409
25713 3 392 390 307
25714 1 392 390 309
25715 1 392 390 311
25716 4 392 390 488
25717 3 392 390 489
25718 2 392 390 492
25719 3 392 390 409
25720 1 307 390 309
25721 2 307 390 311
25722 1 307 390 488
25723 3 307 390 489
25724 3 307 390 492
25725 1 307 390 409
25726 1 309 390 311
25727 3 309 390 488
25728 4 309 390 489
25729 3 309 390 492
25730 2 309 390 409
25731 3 311 390 488
25732 3 311 390 489
25733 1 311 390 492
25734 1 311 390 409
25735 1 488 390 489
25736 2 488 390 492
25737 1 488 390 409
25738 1 489 390 492
25739 2 489 390 409
25740 1 492 390 409
25741 1 370 391 372
25742 2 370 391 374
25743 1 370 391 389
25744 2 370 391 390
25745 3 370 391 392
25746 3 370 391 393
25747 4 370 391 394
25748 1 370 391 472
25749 1 370 391 489
25750 3 370 391 492
25751 3 370 391 493
25752 1 372 391 374
25753 1 372 391 389
25754 3 372 391 390
25755 2 372 391 392
25756 1 372 391 393
25757 3 372 391 394
25758 2 372 391 472
25759 3 372 391 489
25760 4 372 391 492
25761 3 372 391 493
25762 3 374 391 389
25763 4 374 391 390
25764 3 374 391 392
25765 1 374 391 393
25766 2 374 391 394
25767 1 374 391 472
25768 3 374 391 489
25769 3 374 391 492
25770 1 374 391 493
25771 1 389 391 390
25772 1 389 391 392
25773 2 389 391 393
25774 3 389 391 394
25775 3 389 391 472
25776 2 389 391 489
25777 3 389 391 492
25778 4 389 391 493
25779 1 390 391 392
25780 3 390 391 393
25781 2 390 391 394
25782 3 390 391 472
25783 1 390 391 489
25784 1 390 391 492
25785 3 390 391 493
25786 1 392 391 393
25787 1 392 391 394
25788 4 392 391 472
25789 3 392 391 489
25790 2 392 391 492
25791 3 392 391 493
25792 1 393 391 394
25793 3 393 391 472
25794 4 393 391 489
25795 3 393 391 492
25796 2 393 391 493
25797 3 394 391 472
25798 3 394 391 489
25799 1 394 391 492
25800 1 394 391 493
25801 1 472 391 489
25802 2 472 391 492
25803 1 472 391 493
25804 1 489 391 492
25805 2 489 391 493
25806 1 492 391 493
25807 1 290 392 291
25808 2 290 392 294
25809 1 290 392 211
25810 1 290 392 389
25811 2 290 392 390
25812 3 290 392 391
25813 3 290 392 393
25814 4 290 392 394
25815 1 290 392 309
25816 3 290 392 311
25817 3 290 392 313
25818 1 291 392 294
25819 2 291 392 211
25820 1 291 392 389
25821 3 291 392 390
25822 2 291 392 391
25823 1 291 392 393
25824 3 291 392 394
25825 3 291 392 309
25826 4 291 392 311
25827 3 291 392 313
25828 1 294 392 211
25829 3 294 392 389
25830 4 294 392 390
25831 3 294 392 391
25832 1 294 392 393
25833 2 294 392 394
25834 3 294 392 309
25835 3 294 392 311
25836 1 294 392 313
25837 3 211 392 389
25838 3 211 392 390
25839 4 211 392 391
25840 3 211 392 393
25841 3 211 392 394
25842 1 211 392 309
25843 2 211 392 311
25844 1 211 392 313
25845 1 389 392 390
25846 1 389 392 391
25847 2 389 392 393
25848 3 389 392 394
25849 2 389 392 309
25850 3 389 392 311
25851 4 389 392 313
25852 1 390 392 391
25853 3 390 392 393
25854 2 390 392 394
25855 1 390 392 309
25856 1 390 392 311
25857 3 390 392 313
25858 1 391 392 393
25859 1 391 392 394
25860 3 391 392 309
25861 2 391 392 311
25862 3 391 392 313
25863 1 393 392 394
25864 4 393 392 309
25865 3 393 392 311
25866 2 393 392 313
25867 3 394 392 309
25868 1 394 392 311
25869 1 394 392 313
25870 1 309 392 311
25871 2 309 392 313
25872 1 311 392 313
25873 1 274 393 291
25874 2 274 393 294
25875 1 274 393 295
25876 1 274 393 372
25877 2 274 393 374
25878 1 274 393 376
25879 3 274 393 391
25880 3 274 393 392
25881 4 274 393 394
25882 3 274 393 395
25883 3 274 393 396
25884 1 291 393 294
25885 2 291 393 295
25886 1 291 393 372
25887 3 291 393 374
25888 3 291 393 376
25889 2 291 393 391
25890 1 291 393 392
25891 3 291 393 394
25892 4 291 393 395
25893 3 291 393 396
25894 1 294 393 295
25895 3 294 393 372
25896 4 294 393 374
25897 3 294 393 376
25898 3 294 393 391
25899 1 294 393 392
25900 2 294 393 394
25901 3 294 393 395
25902 1 294 393 396
25903 3 295 393 372
25904 3 295 393 374
25905 1 295 393 376
25906 4 295 393 391
25907 3 295 393 392
25908 3 295 393 394
25909 2 295 393 395
25910 1 295 393 396
25911 1 372 393 374
25912 2 372 393 376
25913 1 372 393 391
25914 2 372 393 392
25915 3 372 393 394
25916 3 372 393 395
25917 4 372 393 396
25918 1 374 393 376
25919 1 374 393 391
25920 3 374 393 392
25921 2 374 393 394
25922 1 374 393 395
25923 3 374 393 396
25924 3 376 393 391
25925 4 376 393 392
25926 3 376 393 394
25927 1 376 393 395
25928 2 376 393 396
25929 1 391 393 392
25930 1 391 393 394
25931 2 391 393 395
25932 3 391 393 396
25933 1 392 393 394
25934 3 392 393 395
25935 2 392 393 396
25936 1 394 393 395
25937 1 394 393 396
25938 1 395 393 396
25939 1 391 394 392
25940 1 391 394 393
25941 2 391 394 395
25942 3 391 394 396
25943 2 391 394 311
25944 3 391 394 313
25945 4 391 394 315
25946 1 391 394 492
25947 1 391 394 493
25948 3 391 394 496
25949 3 391 394 413
25950 1 392 394 393
25951 3 392 394 395
25952 2 392 394 396
25953 1 392 394 311
25954 1 392 394 313
25955 3 392 394 315
25956 2 392 394 492
25957 3 392 394 493
25958 4 392 394 496
25959 3 392 394 413
25960 1 393 394 395
25961 1 393 394 396
25962 3 393 394 311
25963 2 393 394 313
25964 3 393 394 315
25965 3 393 394 492
25966 2 393 394 493
25967 3 393 394 496
25968 4 393 394 413
25969 1 395 394 396
25970 4 395 394 311
25971 3 395 394 313
25972 2 395 394 315
25973 3 395 394 492
25974 1 395 394 493
25975 1 395 394 496
25976 3 395 394 413
25977 3 396 394 311
25978 1 396 394 313
25979 1 396 394 315
25980 4 396 394 492
25981 3 396 394 493
25982 2 396 394 496
25983 3 396 394 413
25984 1 311 394 313
25985 2 311 394 315
25986 1 311 394 492
25987 3 311 394 493
25988 3 311 394 496
25989 1 311 394 413
25990 1 313 394 315
25991 3 313 394 492
25992 4 313 394 493
25993 3 313 394 496
25994 2 313 394 413
25995 3 315 394 492
25996 3 315 394 493
25997 1 315 394 496
25998 1 315 394 413
25999 1 492 394 493
26000 2 492 394 496
26001 1 492 394 413
26002 1 493 394 496
26003 2 493 394 413
26004 1 496 394 413
26005 1 374 395 376
26006 2 374 395 378
26007 1 374 395 393
26008 2 374 395 394
26009 3 374 395 396
26010 3 374 395 397
26011 4 374 395 398
26012 1 374 395 476
26013 1 374 395 493
26014 3 374 395 496
26015 3 374 395 497
26016 1 376 395 378
26017 1 376 395 393
26018 3 376 395 394
26019 2 376 395 396
26020 1 376 395 397
26021 3 376 395 398
26022 2 376 395 476
26023 3 376 395 493
26024 4 376 395 496
26025 3 376 395 497
26026 3 378 395 393
26027 4 378 395 394
26028 3 378 395 396
26029 1 378 395 397
26030 2 378 395 398
26031 1 378 395 476
26032 3 378 395 493
26033 3 378 395 496
26034 1 378 395 497
26035 1 393 395 394
26036 1 393 395 396
26037 2 393 395 397
26038 3 393 395 398
26039 3 393 395 476
26040 2 393 395 493
26041 3 393 395 496
26042 4 393 395 497
26043 1 394 395 396
26044 3 394 395 397
26045 2 394 395 398
26046 3 394 395 476
26047 1 394 395 493
26048 1 394 395 496
26049 3 394 395 497
26050 1 396 395 397
26051 1 396 395 398
26052 4 396 395 476
26053 3 396 395 493
26054 2 396 395 496
26055 3 396 395 497
26056 1 397 395 398
26057 3 397 395 476
26058 4 397 395 493
26059 3 397 395 496
26060 2 397 395 497
26061 3 398 395 476
26062 3 398 395 493
26063 1 398 395 496
26064 1 398 395 497
26065 1 476 395 493
26066 2 476 395 496
26067 1 476 395 497
26068 1 493 395 496
26069 2 493 395 497
26070 1 496 395 497
26071 1 294 396 295
26072 2 294 396 298
26073 1 294 396 215
26074 1 294 396 393
26075 2 294 396 394
26076 3 294 396 395
26077 3 294 396 397
26078 4 294 396 398
26079 1 294 396 313
26080 3 294 396 315
26081 3 294 396 317
26082 1 295 396 298
26083 2 295 396 215
26084 1 295 396 393
26085 3 295 396 394
26086 2 295 396 395
26087 1 295 396 397
26088 3 295 396 398
26089 3 295 396 313
26090 4 295 396 315
26091 3 295 396 317
26092 1 298 396 215
26093 3 298 396 393
26094 4 298 396 394
26095 3 298 396 395
26096 1 298 396 397
26097 2 298 396 398
26098 3 298 396 313
26099 3 298 396 315
26100 1 298 396 317
26101 3 215 396 393
26102 3 215 396 394
26103 4 215 396 395
26104 3 215 396 397
26105 3 215 396 398
26106 1 215 396 313
26107 2 215 396 315
26108 1 215 396 317
26109 1 393 396 394
26110 1 393 396 395
26111 2 393 396 397
26112 3 393 396 398
26113 2 393 396 313
26114 3 393 396 315
26115 4 393 396 317
26116 1 394 396 395
26117 3 394 396 397
26118 2 394 396 398
26119 1 394 396 313
26120 1 394 396 315
26121 3 394 396 317
26122 1 395 396 397
26123 1 395 396 398
26124 3 395 396 313
26125 2 395 396 315
26126 3 395 396 317
26127 1 397 396 398
26128 4 397 396 313
26129 3 397 396 315
26130 2 397 396 317
26131 3 398 396 313
26132 1 398 396 315
26133 1 398 396 317
26134 1 313 396 315
26135 2 313 396 317
26136 1 315 396 317
26137 1 278 397 295
26138 2 278 397 298
26139 1 278 397 299
26140 1 278 397 376
26141 2 278 397 378
26142 1 278 397 380
26143 3 278 397 395
26144 3 278 397 396
26145 4 278 397 398
26146 3 278 397 399
26147 3 278 397 400
26148 1 295 397 298
26149 2 295 397 299
26150 1 295 397 376
26151 3 295 397 378
26152 3 295 397 380
26153 2 295 397 395
26154 1 295 397 396
26155 3 295 397 398
26156 4 295 397 399
26157 3 295 397 400
26158 1 298 397 299
26159 3 298 397 376
26160 4 298 397 378
26161 3 298 397 380
26162 3 298 397 395
26163 1 298 397 396
26164 2 298 397 398
26165 3 298 397 399
26166 1 298 397 400
26167 3 299 397 376
26168 3 299 397 378
26169 1 299 397 380
26170 4 299 397 395
26171 3 299 397 396
26172 3 299 397 398
26173 2 299 397 399
26174 1 299 397 400
26175 1 376 397 378
26176 2 376 397 380
26177 1 376 397 395
26178 2 376 397 396
26179 3 376 397 398
26180 3 376 397 399
26181 4 376 397 400
26182 1 378 397 380
26183 1 378 397 395
26184 3 378 397 396
26185 2 378 397 398
26186 1 378 397 399
26187 3 378 397 400
26188 3 380 397 395
26189 4 380 397 396
26190 3 380 397 398
26191 1 380 397 399
26192 2 380 397 400
26193 1 395 397 396
26194 1 395 397 398
26195 2 395 397 399
26196 3 395 397 400
26197 1 396 397 398
26198 3 396 397 399
26199 2 396 397 400
26200 1 398 397 399
26201 1 398 397 400
26202 1 399 397 400
26203 1 395 398 396
26204 1 395 398 397
26205 2 395 398 399
26206 3 395 398 400
26207 2 395 398 315
26208 3 395 398 317
26209 4 395 398 319
26210 1 395 398 496
26211 1 395 398 497
26212 3 395 398 500
26213 3 395 398 417
26214 1 396 398 397
26215 3 396 398 399
26216 2 396 398 400
26217 1 396 398 315
26218 1 396 398 317
26219 3 396 398 319
26220 2 396 398 496
26221 3 396 398 497
26222 4 396 398 500
26223 3 396 398 417
26224 1 397 398 399
26225 1 397 398 400
26226 3 397 398 315
26227 2 397 398 317
26228 3 397 398 319
26229 3 397 398 496
26230 2 397 398 497
26231 3 397 398 500
26232 4 397 398 417
26233 1 399 398 400
26234 4 399 398 315
26235 3 399 398 317
26236 2 399 398 319
26237 3 399 398 496
26238 1 399 398 497
26239 1 399 398 500
26240 3 399 398 417
26241 3 400 398 315
26242 1 400 398 317
26243 1 400 398 319
26244 4 400 398 496
26245 3 400 398 497
26246 2 400 398 500
26247 3 400 398 417
26248 1 315 398 317
26249 2 315 398 319
26250 1 315 398 496
26251 3 315 398 497
26252 3 315 398 500
26253 1 315 398 417
26254 1 317 398 319
26255 3 317 398 496
26256 4 317 398 497
26257 3 317 398 500
26258 2 317 398 417
26259 3 319 398 496
26260 3 319 398 497
26261 1 319 398 500
26262 1 319 398 417
26263 1 496 398 497
26264 2 496 398 500
26265 1 496 398 417
26266 1 497 398 500
26267 2 497 398 417
26268 1 500 398 417
26269 1 378 399 380
26270 2 378 399 362
26271 1 378 399 397
26272 2 378 399 398
26273 3 378 399 400
26274 3 378 399 381
26275 4 378 399 382
26276 1 378 399 480
26277 1 378 399 497
26278 3 378 399 500
26279 3 378 399 481
26280 1 380 399 362
26281 1 380 399 397
26282 3 380 399 398
26283 2 380 399 400
26284 1 380 399 381
26285 3 380 399 382
26286 2 380 399 480
26287 3 380 399 497
26288 4 380 399 500
26289 3 380 399 481
26290 3 362 399 397
26291 4 362 399 398
26292 3 362 399 400
26293 1 362 399 381
26294 2 362 399 382
26295 1 362 399 480
26296 3 362 399 497
26297 3 362 399 500
26298 1 362 399 481
26299 1 397 399 398
26300 1 397 399 400
26301 2 397 399 381
26302 3 397 399 382
26303 3 397 399 480
26304 2 397 399 497
26305 3 397 399 500
26306 4 397 399 481
26307 1 398 399 400
26308 3 398 399 381
26309 2 398 399 382
26310 3 398 399 480
26311 1 398 399 497
26312 1 398 399 500
26313 3 398 399 481
26314 1 400 399 381
26315 1 400 399 382
26316 4 400 399 480
26317 3 400 399 497
26318 2 400 399 500
26319 3 400 399 481
26320 1 381 399 382
26321 3 381 399 480
26322 4 381 399 497
26323 3 381 399 500
26324 2 381 399 481
26325 3 382 399 480
26326 3 382 399 497
26327 1 382 399 500
26328 1 382 399 481
26329 1 480 399 497
26330 2 480 399 500
26331 1 480 399 481
26332 1 497 399 500
26333 2 497 399 481
26334 1 500 399 481
26335 1 298 400 299
26336 2 298 400 282
26337 1 298 400 219
26338 1 298 400 397
26339 2 298 400 398
26340 3 298 400 399
26341 3 298 400 381
26342 4 298 400 382
26343 1 298 400 317
26344 3 298 400 319
26345 3 298 400 301
26346 1 299 400 282
26347 2 299 400 219
26348 1 299 400 397
26349 3 299 400 398
26350 2 299 400 399
26351 1 299 400 381
26352 3 299 400 382
26353 3 299 400 317
26354 4 299 400 319
26355 3 299 400 301
26356 1 282 400 219
26357 3 282 400 397
26358 4 282 400 398
26359 3 282 400 399
26360 1 282 400 381
26361 2 282 400 382
26362 3 282 400 317
26363 3 282 400 319
26364 1 282 400 301
26365 3 219 400 397
26366 3 219 400 398
26367 4 219 400 399
26368 3 219 400 381
26369 3 219 400 382
26370 1 219 400 317
26371 2 219 400 319
26372 1 219 400 301
26373 1 397 400 398
26374 1 397 400 399
26375 2 397 400 381
26376 3 397 400 382
26377 2 397 400 317
26378 3 397 400 319
26379 4 397 400 301
26380 1 398 400 399
26381 3 398 400 381
26382 2 398 400 382
26383 1 398 400 317
26384 1 398 400 319
26385 3 398 400 301
26386 1 399 400 381
26387 1 399 400 382
26388 3 399 400 317
26389 2 399 400 319
26390 3 399 400 301
26391 1 381 400 382
26392 4 381 400 317
26393 3 381 400 319
26394 2 381 400 301
26395 3 382 400 317
26396 1 382 400 319
26397 1 382 400 301
26398 1 317 400 319
26399 2 317 400 301
26400 1 319 400 301
26401 1 382 401 319
26402 2 382 401 302
26403 1 382 401 303
26404 1 382 401 500
26405 2 382 401 482
26406 1 382 401 484
26407 3 382 401 419
26408 3 382 401 420
26409 4 382 401 402
26410 3 382 401 403
26411 3 382 401 404
26412 1 319 401 302
26413 2 319 401 303
26414 1 319 401 500
26415 3 319 401 482
26416 3 319 401 484
26417 2 319 401 419
26418 1 319 401 420
26419 3 319 401 402
26420 4 319 401 403
26421 3 319 401 404
26422 1 302 401 303
26423 3 302 401 500
26424 4 302 401 482
26425 3 302 401 484
26426 3 302 401 419
26427 1 302 401 420
26428 2 302 401 402
26429 3 302 401 403
26430 1 302 401 404
26431 3 303 401 500
26432 3 303 401 482
26433 1 303 401 484
26434 4 303 401 419
26435 3 303 401 420
26436 3 303 401 402
26437 2 303 401 403
26438 1 303 401 404
26439 1 500 401 482
26440 2 500 401 484
26441 1 500 401 419
26442 2 500 401 420
26443 3 500 401 402
26444 3 500 401 403
26445 4 500 401 404
26446 1 482 401 484
26447 1 482 401 419
26448 3 482 401 420
26449 2 482 401 402
26450 1 482 401 403
26451 3 482 401 404
26452 3 484 401 419
26453 4 484 401 420
26454 3 484 401 402
26455 1 484 401 403
26456 2 484 401 404
26457 1 419 401 420
26458 1 419 401 402
26459 2 419 401 403
26460 3 419 401 404
26461 1 420 401 402
26462 3 420 401 403
26463 2 420 401 404
26464 1 402 401 403
26465 1 402 401 404
26466 1 403 401 404
26467 1 419 402 420
26468 1 419 402 401
26469 2 419 402 403
26470 3 419 402 404
26471 2 419 402 439
26472 3 419 402 421
26473 4 419 402 423
26474 1 419 402 20
26475 1 419 402 1
26476 3 419 402 4
26477 3 419 402 21
26478 1 420 402 401
26479 3 420 402 403
26480 2 420 402 404
26481 1 420 402 439
26482 1 420 402 421
26483 3 420 402 423
26484 2 420 402 20
26485 3 420 402 1
26486 4 420 402 4
26487 3 420 402 21
26488 1 401 402 403
26489 1 401 402 404
26490 3 401 402 439
26491 2 401 402 421
26492 3 401 402 423
26493 3 401 402 20
26494 2 401 402 1
26495 3 401 402 4
26496 4 401 402 21
26497 1 403 402 404
26498 4 403 402 439
26499 3 403 402 421
26500 2 403 402 423
26501 3 403 402 20
26502 1 403 402 1
26503 1 403 402 4
26504 3 403 402 21
26505 3 404 402 439
26506 1 404 402 421
26507 1 404 402 423
26508 4 404 402 20
26509 3 404 402 1
26510 2 404 402 4
26511 3 404 402 21
26512 1 439 402 421
26513 2 439 402 423
26514 1 439 402 20
26515 3 439 402 1
26516 3 439 402 4
26517 1 439 402 21
26518 1 421 402 423
26519 3 421 402 20
26520 4 421 402 1
26521 3 421 402 4
26522 2 421 402 21
26523 3 423 402 20
26524 3 423 402 1
26525 1 423 402 4
26526 1 423 402 21
26527 1 20 402 1
26528 2 20 402 4
26529 1 20 402 21
26530 1 1 402 4
26531 2 1 402 21
26532 1 4 402 21
26533 1 482 403 484
26534 2 482 403 486
26535 1 482 403 401
26536 2 482 403 402
26537 3 482 403 404
26538 3 482 403 405
26539 4 482 403 406
26540 1 482 403 84
26541 1 482 403 1
26542 3 482 403 4
26543 3 482 403 5
26544 1 484 403 486
26545 1 484 403 401
26546 3 484 403 402
26547 2 484 403 404
26548 1 484 403 405
26549 3 484 403 406
26550 2 484 403 84
26551 3 484 403 1
26552 4 484 403 4
26553 3 484 403 5
26554 3 486 403 401
26555 4 486 403 402
26556 3 486 403 404
26557 1 486 403 405
26558 2 486 403 406
26559 1 486 403 84
26560 3 486 403 1
26561 3 486 403 4
26562 1 486 403 5
26563 1 401 403 402
26564 1 401 403 404
26565 2 401 403 405
26566 3 401 403 406
26567 3 401 403 84
26568 2 401 403 1
26569 3 401 403 4
26570 4 401 403 5
26571 1 402 403 404
26572 3 402 403 405
26573 2 402 403 406
26574 3 402 403 84
26575 1 402 403 1
26576 1 402 403 4
26577 3 402 403 5
26578 1 404 403 405
26579 1 404 403 406
26580 4 404 403 84
26581 3 404 403 1
26582 2 404 403 4
26583 3 404 403 5
26584 1 405 403 406
26585 3 405 403 84
26586 4 405 403 1
26587 3 405 403 4
26588 2 405 403 5
26589 3 406 403 84
26590 3 406 403 1
26591 1 406 403 4
26592 1 406 403 5
26593 1 84 403 1
26594 2 84 403 4
26595 1 84 403 5
26596 1 1 403 4
26597 2 1 403 5
26598 1 4 403 5
26599 1 302 404 303
26600 2 302 404 306
26601 1 302 404 323
26602 1 302 404 401
26603 2 302 404 402
26604 3 302 404 403
26605 3 302 404 405
26606 4 302 404 406
26607 1 302 404 421
26608 3 302 404 423
26609 3 302 404 425
26610 1 303 404 306
26611 2 303 404 323
26612 1 303 404 401
26613 3 303 404 402
26614 2 303 404 403
26615 1 303 404 405
26616 3 303 404 406
26617 3 303 404 421
26618 4 303 404 423
26619 3 303 404 425
26620 1 306 404 323
26621 3 306 404 401
26622 4 306 404 402
26623 3 306 404 403
26624 1 306 404 405
26625 2 306 404 406
26626 3 306 404 421
26627 3 306 404 423
26628 1 306 404 425
26629 3 323 404 401
26630 3 323 404 402
26631 4 323 404 403
26632 3 323 404 405
26633 3 323 404 406
26634 1 323 404 421
26635 2 323 404 423
26636 1 323 404 425
26637 1 401 404 402
26638 1 401 404 403
26639 2 401 404 405
26640 3 401 404 406
26641 2 401 404 421
26642 3 401 404 423
26643 4 401 404 425
26644 1 402 404 403
26645 3 402 404 405
26646 2 402 404 406
26647 1 402 404 421
26648 1 402 404 423
26649 3 402 404 425
26650 1 403 404 405
26651 1 403 404 406
26652 3 403 404 421
26653 2 403 404 423
26654 3 403 404 425
26655 1 405 404 406
26656 4 405 404 421
26657 3 405 404 423
26658 2 405 404 425
26659 3 406 404 421
26660 1 406 404 423
26661 1 406 404 425
26662 1 421 404 423
26663 2 421 404 425
26664 1 423 404 425
26665 1 386 405 303
26666 2 386 405 306
26667 1 386 405 307
26668 1 386 405 484
26669 2 386 405 486
26670 1 386 405 488
26671 3 386 405 403
26672 3 386 405 404
26673 4 386 405 406
26674 3 386 405 407
26675 3 386 405 408
26676 1 303 405 306
26677 2 303 405 307
26678 1 303 405 484
26679 3 303 405 486
26680 3 303 405 488
26681 2 303 405 403
26682 1 303 405 404
26683 3 303 405 406
26684 4 303 405 407
26685 3 303 405 408
26686 1 306 405 307
26687 3 306 405 484
26688 4 306 405 486
26689 3 306 405 488
26690 3 306 405 403
26691 1 306 405 404
26692 2 306 405 406
26693 3 306 405 407
26694 1 306 405 408
26695 3 307 405 484
26696 3 307 405 486
26697 1 307 405 488
26698 4 307 405 403
26699 3 307 405 404
26700 3 307 405 406
26701 2 307 405 407
26702 1 307 405 408
26703 1 484 405 486
26704 2 484 405 488
26705 1 484 405 403
26706 2 484 405 404
26707 3 484 405 406
26708 3 484 405 407
26709 4 484 405 408
26710 1 486 405 488
26711 1 486 405 403
26712 3 486 405 404
26713 2 486 405 406
26714 1 486 405 407
26715 3 486 405 408
26716 3 488 405 403
26717 4 488 405 404
26718 3 488 405 406
26719 1 488 405 407
26720 2 488 405 408
26721 1 403 405 404
26722 1 403 405 406
26723 2 403 405 407
26724 3 403 405 408
26725 1 404 405 406
26726 3 404 405 407
26727 2 404 405 408
26728 1 406 405 407
26729 1 406 405 408
26730 1 407 405 408
26731 1 403 406 404
26732 1 403 406 405
26733 2 403 406 407
26734 3 403 406 408
26735 2 403 406 423
26736 3 403 406 425
26737 4 403 406 427
26738 1 403 406 4
26739 1 403 406 5
26740 3 403 406 8
26741 3 403 406 25
26742 1 404 406 405
26743 3 404 406 407
26744 2 404 406 408
26745 1 404 406 423
26746 1 404 406 425
26747 3 404 406 427
26748 2 404 406 4
26749 3 404 406 5
26750 4 404 406 8
26751 3 404 406 25
26752 1 405 406 407
26753 1 405 406 408
26754 3 405 406 423
26755 2 405 406 425
26756 3 405 406 427
26757 3 405 406 4
26758 2 405 406 5
26759 3 405 406 8
26760 4 405 406 25
26761 1 407 406 408
26762 4 407 406 423
26763 3 407 406 425
26764 2 407 406 427
26765 3 407 406 4
26766 1 407 406 5
26767 1 407 406 8
26768 3 407 406 25
26769 3 408 406 423
26770 1 408 406 425
26771 1 408 406 427
26772 4 408 406 4
26773 3 408 406 5
26774 2 408 406 8
26775 3 408 406 25
26776 1 423 406 425
26777 2 423 406 427
26778 1 423 406 4
26779 3 423 406 5
26780 3 423 406 8
26781 1 423 406 25
26782 1 425 406 427
26783 3 425 406 4
26784 4 425 406 5
26785 3 425 406 8
26786 2 425 406 25
26787 3 427 406 4
26788 3 427 406 5
26789 1 427 406 8
26790 1 427 406 25
26791 1 4 406 5
26792 2 4 406 8
26793 1 4 406 25
26794 1 5 406 8
26795 2 5 406 25
26796 1 8 406 25
26797 1 486 407 488
26798 2 486 407 490
26799 1 486 407 405
26800 2 486 407 406
26801 3 486 407 408
26802 3 486 407 409
26803 4 486 407 410
26804 1 486 407 88
26805 1 486 407 5
26806 3 486 407 8
26807 3 486 407 9
26808 1 488 407 490
26809 1 488 407 405
26810 3 488 407 406
26811 2 488 407 408
26812 1 488 407 409
26813 3 488 407 410
26814 2 488 407 88
26815 3 488 407 5
26816 4 488 407 8
26817 3 488 407 9
26818 3 490 407 405
26819 4 490 407 406
26820 3 490 407 408
26821 1 490 407 409
26822 2 490 407 410
26823 1 490 407 88
26824 3 490 407 5
26825 3 490 407 8
26826 1 490 407 9
26827 1 405 407 406
26828 1 405 407 408
26829 2 405 407 409
26830 3 405 407 410
26831 3 405 407 88
26832 2 405 407 5
26833 3 405 407 8
26834 4 405 407 9
26835 1 406 407 408
26836 3 406 407 409
26837 2 406 407 410
26838 3 406 407 88
26839 1 406 407 5
26840 1 406 407 8
26841 3 406 407 9
26842 1 408 407 409
26843 1 408 407 410
26844 4 408 407 88
26845 3 408 407 5
26846 2 408 407 8
26847 3 408 407 9
26848 1 409 407 410
26849 3 409 407 88
26850 4 409 407 5
26851 3 409 407 8
26852 2 409 407 9
26853 3 410 407 88
26854 3 410 407 5
26855 1 410 407 8
26856 1 410 407 9
26857 1 88 407 5
26858 2 88 407 8
26859 1 88 407 9
26860 1 5 407 8
26861 2 5 407 9
26862 1 8 407 9
26863 1 306 408 307
26864 2 306 408 310
26865 1 306 408 327
26866 1 306 408 405
26867 2 306 408 406
26868 3 306 408 407
26869 3 306 408 409
26870 4 306 408 410
26871 1 306 408 425
26872 3 306 408 427
26873 3 306 408 429
26874 1 307 408 310
26875 2 307 408 327
26876 1 307 408 405
26877 3 307 408 406
26878 2 307 408 407
26879 1 307 408 409
26880 3 307 408 410
26881 3 307 408 425
26882 4 307 408 427
26883 3 307 408 429
26884 1 310 408 327
26885 3 310 408 405
26886 4 310 408 406
26887 3 310 408 407
26888 1 310 408 409
26889 2 310 408 410
26890 3 310 408 425
26891 3 310 408 427
26892 1 310 408 429
26893 3 327 408 405
26894 3 327 408 406
26895 4 327 408 407
26896 3 327 408 409
26897 3 327 408 410
26898 1 327 408 425
26899 2 327 408 427
26900 1 327 408 429
26901 1 405 408 406
26902 1 405 408 407
26903 2 405 408 409
26904 3 405 408 410
26905 2 405 408 425
26906 3 405 408 427
26907 4 405 408 429
26908 1 406 408 407
26909 3 406 408 409
26910 2 406 408 410
26911 1 406 408 425
26912 1 406 408 427
26913 3 406 408 429
26914 1 407 408 409
26915 1 407 408 410
26916 3 407 408 425
26917 2 407 408 427
26918 3 407 408 429
26919 1 409 408 410
26920 4 409 408 425
26921 3 409 408 427
26922 2 409 408 429
26923 3 410 408 425
26924 1 410 408 427
26925 1 410 408 429
26926 1 425 408 427
26927 2 425 408 429
26928 1 427 408 429
26929 1 390 409 307
26930 2 390 409 310
26931 1 390 409 311
26932 1 390 409 488
26933 2 390 409 490
26934 1 390 409 492
26935 3 390 409 407
26936 3 390 409 408
26937 4 390 409 410
26938 3 390 409 411
26939 3 390 409 412
26940 1 307 409 310
26941 2 307 409 311
26942 1 307 409 488
26943 3 307 409 490
26944 3 307 409 492
26945 2 307 409 407
26946 1 307 409 408
26947 3 307 409 410
26948 4 307 409 411
26949 3 307 409 412
26950 1 310 409 311
26951 3 310 409 488
26952 4 310 409 490
26953 3 310 409 492
26954 3 310 409 407
26955 1 310 409 408
26956 2 310 409 410
26957 3 310 409 411
26958 1 310 409 412
26959 3 311 409 488
26960 3 311 409 490
26961 1 311 409 492
26962 4 311 409 407
26963 3 311 409 408
26964 3 311 409 410
26965 2 311 409 411
26966 1 311 409 412
26967 1 488 409 490
26968 2 488 409 492
26969 1 488 409 407
26970 2 488 409 408
26971 3 488 409 410
26972 3 488 409 411
26973 4 488 409 412
26974 1 490 409 492
26975 1 490 409 407
26976 3 490 409 408
26977 2 490 409 410
26978 1 490 409 411
26979 3 490 409 412
26980 3 492 409 407
26981 4 492 409 408
26982 3 492 409 410
26983 1 492 409 411
26984 2 492 409 412
26985 1 407 409 408
26986 1 407 409 410
26987 2 407 409 411
26988 3 407 409 412
26989 1 408 409 410
26990 3 408 409 411
26991 2 408 409 412
26992 1 410 409 411
26993 1 410 409 412
26994 1 411 409 412
26995 1 407 410 408
26996 1 407 410 409
26997 2 407 410 411
26998 3 407 410 412
26999 2 407 410 427
27000 3 407 410 429
27001 4 407 410 431
27002 1 407 410 8
27003 1 407 410 9
27004 3 407 410 12
27005 3 407 410 29
27006 1 408 410 409
27007 3 408 410 411
27008 2 408 410 412
27009 1 408 410 427
27010 1 408 410 429
27011 3 408 410 431
27012 2 408 410 8
27013 3 408 410 9
27014 4 408 410 12
27015 3 408 410 29
27016 1 409 410 411
27017 1 409 410 412
27018 3 409 410 427
27019 2 409 410 429
27020 3 409 410 431
27021 3 409 410 8
27022 2 409 410 9
27023 3 409 410 12
27024 4 409 410 29
27025 1 411 410 412
27026 4 411 410 427
27027 3 411 410 429
27028 2 411 410 431
27029 3 411 410 8
27030 1 411 410 9
27031 1 411 410 12
27032 3 411 410 29
27033 3 412 410 427
27034 1 412 410 429
27035 1 412 410 431
27036 4 412 410 8
27037 3 412 410 9
27038 2 412 410 12
27039 3 412 410 29
27040 1 427 410 429
27041 2 427 410 431
27042 1 427 410 8
27043 3 427 410 9
27044 3 427 410 12
27045 1 427 410 29
27046 1 429 410 431
27047 3 429 410 8
27048 4 429 410 9
27049 3 429 410 12
27050 2 429 410 29
27051 3 431 410 8
27052 3 431 410 9
27053 1 431 410 12
27054 1 431 410 29
27055 1 8 410 9
27056 2 8 410 12
27057 1 8 410 29
27058 1 9 410 12
27059 2 9 410 29
27060 1 12 410 29
27061 1 490 411 492
27062 2 490 411 494
27063 1 490 411 409
27064 2 490 411 410
27065 3 490 411 412
27066 3 490 411 413
27067 4 490 411 414
27068 1 490 411 92
27069 1 490 411 9
27070 3 490 411 12
27071 3 490 411 13
27072 1 492 411 494
27073 1 492 411 409
27074 3 492 411 410
27075 2 492 411 412
27076 1 492 411 413
27077 3 492 411 414
27078 2 492 411 92
27079 3 492 411 9
27080 4 492 411 12
27081 3 492 411 13
27082 3 494 411 409
27083 4 494 411 410
27084 3 494 411 412
27085 1 494 411 413
27086 2 494 411 414
27087 1 494 411 92
27088 3 494 411 9
27089 3 494 411 12
27090 1 494 411 13
27091 1 409 411 410
27092 1 409 411 412
27093 2 409 411 413
27094 3 409 411 414
27095 3 409 411 92
27096 2 409 411 9
27097 3 409 411 12
27098 4 409 411 13
27099 1 410 411 412
27100 3 410 411 413
27101 2 410 411 414
27102 3 410 411 92
27103 1 410 411 9
27104 1 410 411 12
27105 3 410 411 13
27106 1 412 411 413
27107 1 412 411 414
27108 4 412 411 92
27109 3 412 411 9
27110 2 412 411 12
27111 3 412 411 13
27112 1 413 411 414
27113 3 413 411 92
27114 4 413 411 9
27115 3 413 411 12
27116 2 413 411 13
27117 3 414 411 92
27118 3 414 411 9
27119 1 414 411 12
27120 1 414 411 13
27121 1 92 411 9
27122 2 92 411 12
27123 1 92 411 13
27124 1 9 411 12
27125 2 9 411 13
27126 1 12 411 13
27127 1 310 412 311
27128 2 310 412 314
27129 1 310 412 331
27130 1 310 412 409
27131 2 310 412 410
27132 3 310 412 411
27133 3 310 412 413
27134 4 310 412 414
27135 1 310 412 429
27136 3 310 412 431
27137 3 310 412 433
27138 1 311 412 314
27139 2 311 412 331
27140 1 311 412 409
27141 3 311 412 410
27142 2 311 412 411
27143 1 311 412 413
27144 3 311 412 414
27145 3 311 412 429
27146 4 311 412 431
27147 3 311 412 433
27148 1 314 412 331
27149 3 314 412 409
27150 4 314 412 410
27151 3 314 412 411
27152 1 314 412 413
27153 2 314 412 414
27154 3 314 412 429
27155 3 314 412 431
27156 1 314 412 433
27157 3 331 412 409
27158 3 331 412 410
27159 4 331 412 411
27160 3 331 412 413
27161 3 331 412 414
27162 1 331 412 429
27163 2 331 412 431
27164 1 331 412 433
27165 1 409 412 410
27166 1 409 412 411
27167 2 409 412 413
27168 3 409 412 414
27169 2 409 412 429
27170 3 409 412 431
27171 4 409 412 433
27172 1 410 412 411
27173 3 410 412 413
27174 2 410 412 414
27175 1 410 412 429
27176 1 410 412 431
27177 3 410 412 433
27178 1 411 412 413
27179 1 411 412 414
27180 3 411 412 429
27181 2 411 412 431
27182 3 411 412 433
27183 1 413 412 414
27184 4 413 412 429
27185 3 413 412 431
27186 2 413 412 433
27187 3 414 412 429
27188 1 414 412 431
27189 1 414 412 433
27190 1 429 412 431
27191 2 429 412 433
27192 1 431 412 433
27193 1 394 413 311
27194 2 394 413 314
27195 1 394 413 315
27196 1 394 413 492
27197 2 394 413 494
27198 1 394 413 496
27199 3 394 413 411
27200 3 394 413 412
27201 4 394 413 414
27202 3 394 413 415
27203 3 394 413 416
27204 1 311 413 314
27205 2 311 413 315
27206 1 311 413 492
27207 3 311 413 494
27208 3 311 413 496
27209 2 311 413 411
27210 1 311 413 412
27211 3 311 413 414
27212 4 311 413 415
27213 3 311 413 416
27214 1 314 413 315
27215 3 314 413 492
27216 4 314 413 494
27217 3 314 413 496
27218 3 314 413 411
27219 1 314 413 412
27220 2 314 413 414
27221 3 314 413 415
27222 1 314 413 416
27223 3 315 413 492
27224 3 315 413 494
27225 1 315 413 496
27226 4 315 413 411
27227 3 315 413 412
27228 3 315 413 414
27229 2 315 413 415
27230 1 315 413 416
27231 1 492 413 494
27232 2 492 413 496
27233 1 492 413 411
27234 2 492 413 412
27235 3 492 413 414
27236 3 492 413 415
27237 4 492 413 416
27238 1 494 413 496
27239 1 494 413 411
27240 3 494 413 412
27241 2 494 413 414
27242 1 494 413 415
27243 3 494 413 416
27244 3 496 413 411
27245 4 496 413 412
27246 3 496 413 414
27247 1 496 413 415
27248 2 496 413 416
27249 1 411 413 412
27250 1 411 413 414
27251 2 411 413 415
27252 3 411 413 416
27253 1 412 413 414
27254 3 412 413 415
27255 2 412 413 416
27256 1 414 413 415
27257 1 414 413 416
27258 1 415 413 416
27259 1 411 414 412
27260 1 411 414 413
27261 2 411 414 415
27262 3 411 414 416
27263 2 411 414 431
27264 3 411 414 433
27265 4 411 414 435
27266 1 411 414 12
27267 1 411 414 13
27268 3 411 414 16
27269 3 411 414 33
27270 1 412 414 413
27271 3 412 414 415
27272 2 412 414 416
27273 1 412 414 431
27274 1 412 414 433
27275 3 412 414 435
27276 2 412 414 12
27277 3 412 414 13
27278 4 412 414 16
27279 3 412 414 33
27280 1 413 414 415
27281 1 413 414 416
27282 3 413 414 431
27283 2 413 414 433
27284 3 413 414 435
27285 3 413 414 12
27286 2 413 414 13
27287 3 413 414 16
27288 4 413 414 33
27289 1 415 414 416
27290 4 415 414 431
27291 3 415 414 433
27292 2 415 414 435
27293 3 415 414 12
27294 1 415 414 13
27295 1 415 414 16
27296 3 415 414 33
27297 3 416 414 431
27298 1 416 414 433
27299 1 416 414 435
27300 4 416 414 12
27301 3 416 414 13
27302 2 416 414 16
27303 3 416 414 33
27304 1 431 414 433
27305 2 431 414 435
27306 1 431 414 12
27307 3 431 414 13
27308 3 431 414 16
27309 1 431 414 33
27310 1 433 414 435
27311 3 433 414 12
27312 4 433 414 13
27313 3 433 414 16
27314 2 433 414 33
27315 3 435 414 12
27316 3 435 414 13
27317 1 435 414 16
27318 1 435 414 33
27319 1 12 414 13
27320 2 12 414 16
27321 1 12 414 33
27322 1 13 414 16
27323 2 13 414 33
27324 1 16 414 33
27325 1 494 415 496
27326 2 494 415 498
27327 1 494 415 413
27328 2 494 415 414
27329 3 494 415 416
27330 3 494 415 417
27331 4 494 415 418
27332 1 494 415 96
27333 1 494 415 13
27334 3 494 415 16
27335 3 494 415 17
27336 1 496 415 498
27337 1 496 415 413
27338 3 496 415 414
27339 2 496 415 416
27340 1 496 415 417
27341 3 496 415 418
27342 2 496 415 96
27343 3 496 415 13
27344 4 496 415 16
27345 3 496 415 17
27346 3 498 415 413
27347 4 498 415 414
27348 3 498 415 416
27349 1 498 415 417
27350 2 498 415 418
27351 1 498 415 96
27352 3 498 415 13
27353 3 498 415 16
27354 1 498 415 17
27355 1 413 415 414
27356 1 413 415 416
27357 2 413 415 417
27358 3 413 415 418
27359 3 413 415 96
27360 2 413 415 13
27361 3 413 415 16
27362 4 413 415 17
27363 1 414 415 416
27364 3 414 415 417
27365 2 414 415 418
27366 3 414 415 96
27367 1 414 415 13
27368 1 414 415 16
27369 3 414 415 17
27370 1 416 415 417
27371 1 416 415 418
27372 4 416 415 96
27373 3 416 415 13
27374 2 416 415 16
27375 3 416 415 17
27376 1 417 415 418
27377 3 417 415 96
27378 4 417 415 13
27379 3 417 415 16
27380 2 417 415 17
27381 3 418 415 96
27382 3 418 415 13
27383 1 418 415 16
27384 1 418 415 17
27385 1 96 415 13
27386 2 96 415 16
27387 1 96 415 17
27388 1 13 415 16
27389 2 13 415 17
27390 1 16 415 17
27391 1 314 416 315
27392 2 314 416 318
27393 1 314 416 335
27394 1 314 416 413
27395 2 314 416 414
27396 3 314 416 415
27397 3 314 416 417
27398 4 314 416 418
27399 1 314 416 433
27400 3 314 416 435
27401 3 314 416 437
27402 1 315 416 318
27403 2 315 416 335
27404 1 315 416 413
27405 3 315 416 414
27406 2 315 416 415
27407 1 315 416 417
27408 3 315 416 418
27409 3 315 416 433
27410 4 315 416 435
27411 3 315 416 437
27412 1 318 416 335
27413 3 318 416 413
27414 4 318 416 414
27415 3 318 416 415
27416 1 318 416 417
27417 2 318 416 418
27418 3 318 416 433
27419 3 318 416 435
27420 1 318 416 437
27421 3 335 416 413
27422 3 335 416 414
27423 4 335 416 415
27424 3 335 416 417
27425 3 335 416 418
27426 1 335 416 433
27427 2 335 416 435
27428 1 335 416 437
27429 1 413 416 414
27430 1 413 416 415
27431 2 413 416 417
27432 3 413 416 418
27433 2 413 416 433
27434 3 413 416 435
27435 4 413 416 437
27436 1 414 416 415
27437 3 414 416 417
27438 2 414 416 418
27439 1 414 416 433
27440 1 414 416 435
27441 3 414 416 437
27442 1 415 416 417
27443 1 415 416 418
27444 3 415 416 433
27445 2 415 416 435
27446 3 415 416 437
27447 1 417 416 418
27448 4 417 416 433
27449 3 417 416 435
27450 2 417 416 437
27451 3 418 416 433
27452 1 418 416 435
27453 1 418 416 437
27454 1 433 416 435
27455 2 433 416 437
27456 1 435 416 437
27457 1 398 417 315
27458 2 398 417 318
27459 1 398 417 319
27460 1 398 417 496
27461 2 398 417 498
27462 1 398 417 500
27463 3 398 417 415
27464 3 398 417 416
27465 4 398 417 418
27466 3 398 417 419
27467 3 398 417 420
27468 1 315 417 318
27469 2 315 417 319
27470 1 315 417 496
27471 3 315 417 498
27472 3 315 417 500
27473 2 315 417 415
27474 1 315 417 416
27475 3 315 417 418
27476 4 315 417 419
27477 3 315 417 420
27478 1 318 417 319
27479 3 318 417 496
27480 4 318 417 498
27481 3 318 417 500
27482 3 318 417 415
27483 1 318 417 416
27484 2 318 417 418
27485 3 318 417 419
27486 1 318 417 420
27487 3 319 417 496
27488 3 319 417 498
27489 1 319 417 500
27490 4 319 417 415
27491 3 319 417 416
27492 3 319 417 418
27493 2 319 417 419
27494 1 319 417 420
27495 1 496 417 498
27496 2 496 417 500
27497 1 496 417 415
27498 2 496 417 416
27499 3 496 417 418
27500 3 496 417 419
27501 4 496 417 420
27502 1 498 417 500
27503 1 498 417 415
27504 3 498 417 416
27505 2 498 417 418
27506 1 498 417 419
27507 3 498 417 420
27508 3 500 417 415
27509 4 500 417 416
27510 3 500 417 418
27511 1 500 417 419
27512 2 500 417 420
27513 1 415 417 416
27514 1 415 417 418
27515 2 415 417 419
27516 3 415 417 420
27517 1 416 417 418
27518 3 416 417 419
27519 2 416 417 420
27520 1 418 417 419
27521 1 418 417 420
27522 1 419 417 420
27523 1 415 418 416
27524 1 415 418 417
27525 2 415 418 419
27526 3 415 418 420
27527 2 415 418 435
27528 3 415 418 437
27529 4 415 418 439
27530 1 415 418 16
27531 1 415 418 17
27532 3 415 418 20
27533 3 415 418 37
27534 1 416 418 417
27535 3 416 418 419
27536 2 416 418 420
27537 1 416 418 435
27538 1 416 418 437
27539 3 416 418 439
27540 2 416 418 16
27541 3 416 418 17
27542 4 416 418 20
27543 3 416 418 37
27544 1 417 418 419
27545 1 417 418 420
27546 3 417 418 435
27547 2 417 418 437
27548 3 417 418 439
27549 3 417 418 16
27550 2 417 418 17
27551 3 417 418 20
27552 4 417 418 37
27553 1 419 418 420
27554 4 419 418 435
27555 3 419 418 437
27556 2 419 418 439
27557 3 419 418 16
27558 1 419 418 17
27559 1 419 418 20
27560 3 419 418 37
27561 3 420 418 435
27562 1 420 418 437
27563 1 420 418 439
27564 4 420 418 16
27565 3 420 418 17
27566 2 420 418 20
27567 3 420 418 37
27568 1 435 418 437
27569 2 435 418 439
27570 1 435 418 16
27571 3 435 418 17
27572 3 435 418 20
27573 1 435 418 37
27574 1 437 418 439
27575 3 437 418 16
27576 4 437 418 17
27577 3 437 418 20
27578 2 437 418 37
27579 3 439 418 16
27580 3 439 418 17
27581 1 439 418 20
27582 1 439 418 37
27583 1 16 418 17
27584 2 16 418 20
27585 1 16 418 37
27586 1 17 418 20
27587 2 17 418 37
27588 1 20 418 37
27589 1 498 419 500
27590 2 498 419 482
27591 1 498 419 417
27592 2 498 419 418
27593 3 498 419 420
27594 3 498 419 401
27595 4 498 419 402
27596 1 498 419 100
27597 1 498 419 17
27598 3 498 419 20
27599 3 498 419 1
27600 1 500 419 482
27601 1 500 419 417
27602 3 500 419 418
27603 2 500 419 420
27604 1 500 419 401
27605 3 500 419 402
27606 2 500 419 100
27607 3 500 419 17
27608 4 500 419 20
27609 3 500 419 1
27610 3 482 419 417
27611 4 482 419 418
27612 3 482 419 420
27613 1 482 419 401
27614 2 482 419 402
27615 1 482 419 100
27616 3 482 419 17
27617 3 482 419 20
27618 1 482 419 1
27619 1 417 419 418
27620 1 417 419 420
27621 2 417 419 401
27622 3 417 419 402
27623 3 417 419 100
27624 2 417 419 17
27625 3 417 419 20
27626 4 417 419 1
27627 1 418 419 420
27628 3 418 419 401
27629 2 418 419 402
27630 3 418 419 100
27631 1 418 419 17
27632 1 418 419 20
27633 3 418 419 1
27634 1 420 419 401
27635 1 420 419 402
27636 4 420 419 100
27637 3 420 419 17
27638 2 420 419 20
27639 3 420 419 1
27640 1 401 419 402
27641 3 401 419 100
27642 4 401 419 17
27643 3 401 419 20
27644 2 401 419 1
27645 3 402 419 100
27646 3 402 419 17
27647 1 402 419 20
27648 1 402 419 1
27649 1 100 419 17
27650 2 100 419 20
27651 1 100 419 1
27652 1 17 419 20
27653 2 17 419 1
27654 1 20 419 1
27655 1 318 420 319
27656 2 318 420 302
27657 1 318 420 339
27658 1 318 420 417
27659 2 318 420 418
27660 3 318 420 419
27661 3 318 420 401
27662 4 318 420 402
27663 1 318 420 437
27664 3 318 420 439
27665 3 318 420 421
27666 1 319 420 302
27667 2 319 420 339
27668 1 319 420 417
27669 3 319 420 418
27670 2 319 420 419
27671 1 319 420 401
27672 3 319 420 402
27673 3 319 420 437
27674 4 319 420 439
27675 3 319 420 421
27676 1 302 420 339
27677 3 302 420 417
27678 4 302 420 418
27679 3 302 420 419
27680 1 302 420 401
27681 2 302 420 402
27682 3 302 420 437
27683 3 302 420 439
27684 1 302 420 421
27685 3 339 420 417
27686 3 339 420 418
27687 4 339 420 419
27688 3 339 420 401
27689 3 339 420 402
27690 1 339 420 437
27691 2 339 420 439
27692 1 339 420 421
27693 1 417 420 418
27694 1 417 420 419
27695 2 417 420 401
27696 3 417 420 402
27697 2 417 420 437
27698 3 417 420 439
27699 4 417 420 421
27700 1 418 420 419
27701 3 418 420 401
27702 2 418 420 402
27703 1 418 420 437
27704 1 418 420 439
27705 3 418 420 421
27706 1 419 420 401
27707 1 419 420 402
27708 3 419 420 437
27709 2 419 420 439
27710 3 419 420 421
27711 1 401 420 402
27712 4 401 420 437
27713 3 401 420 439
27714 2 401 420 421
27715 3 402 420 437
27716 1 402 420 439
27717 1 402 420 421
27718 1 437 420 439
27719 2 437 420 421
27720 1 439 420 421
27721 1 302 421 339
27722 2 302 421 322
27723 1 302 421 323
27724 1 302 421 420
27725 2 302 421 402
27726 1 302 421 404
27727 3 302 421 439
27728 3 302 421 440
27729 4 302 421 422
27730 3 302 421 423
27731 3 302 421 424
27732 1 339 421 322
27733 2 339 421 323
27734 1 339 421 420
27735 3 339 421 402
27736 3 339 421 404
27737 2 339 421 439
27738 1 339 421 440
27739 3 339 421 422
27740 4 339 421 423
27741 3 339 421 424
27742 1 322 421 323
27743 3 322 421 420
27744 4 322 421 402
27745 3 322 421 404
27746 3 322 421 439
27747 1 322 421 440
27748 2 322 421 422
27749 3 322 421 423
27750 1 322 421 424
27751 3 323 421 420
27752 3 323 421 402
27753 1 323 421 404
27754 4 323 421 439
27755 3 323 421 440
27756 3 323 421 422
27757 2 323 421 423
27758 1 323 421 424
27759 1 420 421 402
27760 2 420 421 404
27761 1 420 421 439
27762 2 420 421 440
27763 3 420 421 422
27764 3 420 421 423
27765 4 420 421 424
27766 1 402 421 404
27767 1 402 421 439
27768 3 402 421 440
27769 2 402 421 422
27770 1 402 421 423
27771 3 402 421 424
27772 3 404 421 439
27773 4 404 421 440
27774 3 404 421 422
27775 1 404 421 423
27776 2 404 421 424
27777 1 439 421 440
27778 1 439 421 422
27779 2 439 421 423
27780 3 439 421 424
27781 1 440 421 422
27782 3 440 421 423
27783 2 440 421 424
27784 1 422 421 423
27785 1 422 421 424
27786 1 423 421 424
27787 1 439 422 440
27788 1 439 422 421
27789 2 439 422 423
27790 3 439 422 424
27791 2 439 422 459
27792 3 439 422 441
27793 4 439 422 443
27794 1 439 422 40
27795 1 439 422 21
27796 3 439 422 24
27797 3 439 422 41
27798 1 440 422 421
27799 3 440 422 423
27800 2 440 422 424
27801 1 440 422 459
27802 1 440 422 441
27803 3 440 422 443
27804 2 440 422 40
27805 3 440 422 21
27806 4 440 422 24
27807 3 440 422 41
27808 1 421 422 423
27809 1 421 422 424
27810 3 421 422 459
27811 2 421 422 441
27812 3 421 422 443
27813 3 421 422 40
27814 2 421 422 21
27815 3 421 422 24
27816 4 421 422 41
27817 1 423 422 424
27818 4 423 422 459
27819 3 423 422 441
27820 2 423 422 443
27821 3 423 422 40
27822 1 423 422 21
27823 1 423 422 24
27824 3 423 422 41
27825 3 424 422 459
27826 1 424 422 441
27827 1 424 422 443
27828 4 424 422 40
27829 3 424 422 21
27830 2 424 422 24
27831 3 424 422 41
27832 1 459 422 441
27833 2 459 422 443
27834 1 459 422 40
27835 3 459 422 21
27836 3 459 422 24
27837 1 459 422 41
27838 1 441 422 443
27839 3 441 422 40
27840 4 441 422 21
27841 3 441 422 24
27842 2 441 422 41
27843 3 443 422 40
27844 3 443 422 21
27845 1 443 422 24
27846 1 443 422 41
27847 1 40 422 21
27848 2 40 422 24
27849 1 40 422 41
27850 1 21 422 24
27851 2 21 422 41
27852 1 24 422 41
27853 1 402 423 404
27854 2 402 423 406
27855 1 402 423 421
27856 2 402 423 422
27857 3 402 423 424
27858 3 402 423 425
27859 4 402 423 426
27860 1 402 423 4
27861 1 402 423 21
27862 3 402 423 24
27863 3 402 423 25
27864 1 404 423 406
27865 1 404 423 421
27866 3 404 423 422
27867 2 404 423 424
27868 1 404 423 425
27869 3 404 423 426
27870 2 404 423 4
27871 3 404 423 21
27872 4 404 423 24
27873 3 404 423 25
27874 3 406 423 421
27875 4 406 423 422
27876 3 406 423 424
27877 1 406 423 425
27878 2 406 423 426
27879 1 406 423 4
27880 3 406 423 21
27881 3 406 423 24
27882 1 406 423 25
27883 1 421 423 422
27884 1 421 423 424
27885 2 421 423 425
27886 3 421 423 426
27887 3 421 423 4
27888 2 421 423 21
27889 3 421 423 24
27890 4 421 423 25
27891 1 422 423 424
27892 3 422 423 425
27893 2 422 423 426
27894 3 422 423 4
27895 1 422 423 21
27896 1 422 423 24
27897 3 422 423 25
27898 1 424 423 425
27899 1 424 423 426
27900 4 424 423 4
27901 3 424 423 21
27902 2 424 423 24
27903 3 424 423 25
27904 1 425 423 426
27905 3 425 423 4
27906 4 425 423 21
27907 3 425 423 24
27908 2 425 423 25
27909 3 426 423 4
27910 3 426 423 21
27911 1 426 423 24
27912 1 426 423 25
27913 1 4 423 21
27914 2 4 423 24
27915 1 4 423 25
27916 1 21 423 24
27917 2 21 423 25
27918 1 24 423 25
27919 1 322 424 323
27920 2 322 424 326
27921 1 322 424 343
27922 1 322 424 421
27923 2 322 424 422
27924 3 322 424 423
27925 3 322 424 425
27926 4 322 424 426
27927 1 322 424 441
27928 3 322 424 443
27929 3 322 424 445
27930 1 323 424 326
27931 2 323 424 343
27932 1 323 424 421
27933 3 323 424 422
27934 2 323 424 423
27935 1 323 424 425
27936 3 323 424 426
27937 3 323 424 441
27938 4 323 424 443
27939 3 323 424 445
27940 1 326 424 343
27941 3 326 424 421
27942 4 326 424 422
27943 3 326 424 423
27944 1 326 424 425
27945 2 326 424 426
27946 3 326 424 441
27947 3 326 424 443
27948 1 326 424 445
27949 3 343 424 421
27950 3 343 424 422
27951 4 343 424 423
27952 3 343 424 425
27953 3 343 424 426
27954 1 343 424 441
27955 2 343 424 443
27956 1 343 424 445
27957 1 421 424 422
27958 1 421 424 423
27959 2 421 424 425
27960 3 421 424 426
27961 2 421 424 441
27962 3 421 424 443
27963 4 421 424 445
27964 1 422 424 423
27965 3 422 424 425
27966 2 422 424 426
27967 1 422 424 441
27968 1 422 424 443
27969 3 422 424 445
27970 1 423 424 425
27971 1 423 424 426
27972 3 423 424 441
27973 2 423 424 443
27974 3 423 424 445
27975 1 425 424 426
27976 4 425 424 441
27977 3 425 424 443
27978 2 425 424 445
27979 3 426 424 441
27980 1 426 424 443
27981 1 426 424 445
27982 1 441 424 443
27983 2 441 424 445
27984 1 443 424 445
27985 1 306 425 323
27986 2 306 425 326
27987 1 306 425 327
27988 1 306 425 404
27989 2 306 425 406
27990 1 306 425 408
27991 3 306 425 423
27992 3 306 425 424
27993 4 306 425 426
27994 3 306 425 427
27995 3 306 425 428
27996 1 323 425 326
27997 2 323 425 327
27998 1 323 425 404
27999 3 323 425 406
28000 3 323 425 408
28001 2 323 425 423
28002 1 323 425 424
28003 3 323 425 426
28004 4 323 425 427
28005 3 323 425 428
28006 1 326 425 327
28007 3 326 425 404
28008 4 326 425 406
28009 3 326 425 408
28010 3 326 425 423
28011 1 326 425 424
28012 2 326 425 426
28013 3 326 425 427
28014 1 326 425 428
28015 3 327 425 404
28016 3 327 425 406
28017 1 327 425 408
28018 4 327 425 423
28019 3 327 425 424
28020 3 327 425 426
28021 2 327 425 427
28022 1 327 425 428
28023 1 404 425 406
28024 2 404 425 408
28025 1 404 425 423
28026 2 404 425 424
28027 3 404 425 426
28028 3 404 425 427
28029 4 404 425 428
28030 1 406 425 408
28031 1 406 425 423
28032 3 406 425 424
28033 2 406 425 426
28034 1 406 425 427
28035 3 406 425 428
28036 3 408 425 423
28037 4 408 425 424
28038 3 408 425 426
28039 1 408 425 427
28040 2 408 425 428
28041 1 423 425 424
28042 1 423 425 426
28043 2 423 425 427
28044 3 423 425 428
28045 1 424 425 426
28046 3 424 425 427
28047 2 424 425 428
28048 1 426 425 427
28049 1 426 425 428
28050 1 427 425 428
28051 1 423 426 424
28052 1 423 426 425
28053 2 423 426 427
28054 3 423 426 428
28055 2 423 426 443
28056 3 423 426 445
28057 4 423 426 447
28058 1 423 426 24
28059 1 423 426 25
28060 3 423 426 28
28061 3 423 426 45
28062 1 424 426 425
28063 3 424 426 427
28064 2 424 426 428
28065 1 424 426 443
28066 1 424 426 445
28067 3 424 426 447
28068 2 424 426 24
28069 3 424 426 25
28070 4 424 426 28
28071 3 424 426 45
28072 1 425 426 427
28073 1 425 426 428
28074 3 425 426 443
28075 2 425 426 445
28076 3 425 426 447
28077 3 425 426 24
28078 2 425 426 25
28079 3 425 426 28
28080 4 425 426 45
28081 1 427 426 428
28082 4 427 426 443
28083 3 427 426 445
28084 2 427 426 447
28085 3 427 426 24
28086 1 427 426 25
28087 1 427 426 28
28088 3 427 426 45
28089 3 428 426 443
28090 1 428 426 445
28091 1 428 426 447
28092 4 428 426 24
28093 3 428 426 25
28094 2 428 426 28
28095 3 428 426 45
28096 1 443 426 445
28097 2 443 426 447
28098 1 443 426 24
28099 3 443 426 25
28100 3 443 426 28
28101 1 443 426 45
28102 1 445 426 447
28103 3 445 426 24
28104 4 445 426 25
28105 3 445 426 28
28106 2 445 426 45
28107 3 447 426 24
28108 3 447 426 25
28109 1 447 426 28
28110 1 447 426 45
28111 1 24 426 25
28112 2 24 426 28
28113 1 24 426 45
28114 1 25 426 28
28115 2 25 426 45
28116 1 28 426 45
28117 1 406 427 408
28118 2 406 427 410
28119 1 406 427 425
28120 2 406 427 426
28121 3 406 427 428
28122 3 406 427 429
28123 4 406 427 430
28124 1 406 427 8
28125 1 406 427 25
28126 3 406 427 28
28127 3 406 427 29
28128 1 408 427 410
28129 1 408 427 425
28130 3 408 427 426
28131 2 408 427 428
28132 1 408 427 429
28133 3 408 427 430
28134 2 408 427 8
28135 3 408 427 25
28136 4 408 427 28
28137 3 408 427 29
28138 3 410 427 425
28139 4 410 427 426
28140 3 410 427 428
28141 1 410 427 429
28142 2 410 427 430
28143 1 410 427 8
28144 3 410 427 25
28145 3 410 427 28
28146 1 410 427 29
28147 1 425 427 426
28148 1 425 427 428
28149 2 425 427 429
28150 3 425 427 430
28151 3 425 427 8
28152 2 425 427 25
28153 3 425 427 28
28154 4 425 427 29
28155 1 426 427 428
28156 3 426 427 429
28157 2 426 427 430
28158 3 426 427 8
28159 1 426 427 25
28160 1 426 427 28
28161 3 426 427 29
28162 1 428 427 429
28163 1 428 427 430
28164 4 428 427 8
28165 3 428 427 25
28166 2 428 427 28
28167 3 428 427 29
28168 1 429 427 430
28169 3 429 427 8
28170 4 429 427 25
28171 3 429 427 28
28172 2 429 427 29
28173 3 430 427 8
28174 3 430 427 25
28175 1 430 427 28
28176 1 430 427 29
28177 1 8 427 25
28178 2 8 427 28
28179 1 8 427 29
28180 1 25 427 28
28181 2 25 427 29
28182 1 28 427 29
28183 1 326 428 327
28184 2 326 428 330
28185 1 326 428 347
28186 1 326 428 425
28187 2 326 428 426
28188 3 326 428 427
28189 3 326 428 429
28190 4 326 428 430
28191 1 326 428 445
28192 3 326 428 447
28193 3 326 428 449
28194 1 327 428 330
28195 2 327 428 347
28196 1 327 428 425
28197 3 327 428 426
28198 2 327 428 427
28199 1 327 428 429
28200 3 327 428 430
28201 3 327 428 445
28202 4 327 428 447
28203 3 327 428 449
28204 1 330 428 347
28205 3 330 428 425
28206 4 330 428 426
28207 3 330 428 427
28208 1 330 428 429
28209 2 330 428 430
28210 3 330 428 445
28211 3 330 428 447
28212 1 330 428 449
28213 3 347 428 425
28214 3 347 428 426
28215 4 347 428 427
28216 3 347 428 429
28217 3 347 428 430
28218 1 347 428 445
28219 2 347 428 447
28220 1 347 428 449
28221 1 425 428 426
28222 1 425 428 427
28223 2 425 428 429
28224 3 425 428 430
28225 2 425 428 445
28226 3 425 428 447
28227 4 425 428 449
28228 1 426 428 427
28229 3 426 428 429
28230 2 426 428 430
28231 1 426 428 445
28232 1 426 428 447
28233 3 426 428 449
28234 1 427 428 429
28235 1 427 428 430
28236 3 427 428 445
28237 2 427 428 447
28238 3 427 428 449
28239 1 429 428 430
28240 4 429 428 445
28241 3 429 428 447
28242 2 429 428 449
28243 3 430 428 445
28244 1 430 428 447
28245 1 430 428 449
28246 1 445 428 447
28247 2 445 428 449
28248 1 447 428 449
28249 1 310 429 327
28250 2 310 429 330
28251 1 310 429 331
28252 1 310 429 408
28253 2 310 429 410
28254 1 310 429 412
28255 3 310 429 427
28256 3 310 429 428
28257 4 310 429 430
28258 3 310 429 431
28259 3 310 429 432
28260 1 327 429 330
28261 2 327 429 331
28262 1 327 429 408
28263 3 327 429 410
28264 3 327 429 412
28265 2 327 429 427
28266 1 327 429 428
28267 3 327 429 430
28268 4 327 429 431
28269 3 327 429 432
28270 1 330 429 331
28271 3 330 429 408
28272 4 330 429 410
28273 3 330 429 412
28274 3 330 429 427
28275 1 330 429 428
28276 2 330 429 430
28277 3 330 429 431
28278 1 330 429 432
28279 3 331 429 408
28280 3 331 429 410
28281 1 331 429 412
28282 4 331 429 427
28283 3 331 429 428
28284 3 331 429 430
28285 2 331 429 431
28286 1 331 429 432
28287 1 408 429 410
28288 2 408 429 412
28289 1 408 429 427
28290 2 408 429 428
28291 3 408 429 430
28292 3 408 429 431
28293 4 408 429 432
28294 1 410 429 412
28295 1 410 429 427
28296 3 410 429 428
28297 2 410 429 430
28298 1 410 429 431
28299 3 410 429 432
28300 3 412 429 427
28301 4 412 429 428
28302 3 412 429 430
28303 1 412 429 431
28304 2 412 429 432
28305 1 427 429 428
28306 1 427 429 430
28307 2 427 429 431
28308 3 427 429 432
28309 1 428 429 430
28310 3 428 429 431
28311 2 428 429 432
28312 1 430 429 431
28313 1 430 429 432
28314 1 431 429 432
28315 1 427 430 428
28316 1 427 430 429
28317 2 427 430 431
28318 3 427 430 432
28319 2 427 430 447
28320 3 427 430 449
28321 4 427 430 451
28322 1 427 430 28
28323 1 427 430 29
28324 3 427 430 32
28325 3 427 430 49
28326 1 428 430 429
28327 3 428 430 431
28328 2 428 430 432
28329 1 428 430 447
28330 1 428 430 449
28331 3 428 430 451
28332 2 428 430 28
28333 3 428 430 29
28334 4 428 430 32
28335 3 428 430 49
28336 1 429 430 431
28337 1 429 430 432
28338 3 429 430 447
28339 2 429 430 449
28340 3 429 430 451
28341 3 429 430 28
28342 2 429 430 29
28343 3 429 430 32
28344 4 429 430 49
28345 1 431 430 432
28346 4 431 430 447
28347 3 431 430 449
28348 2 431 430 451
28349 3 431 430 28
28350 1 431 430 29
28351 1 431 430 32
28352 3 431 430 49
28353 3 432 430 447
28354 1 432 430 449
28355 1 432 430 451
28356 4 432 430 28
28357 3 432 430 29
28358 2 432 430 32
28359 3 432 430 49
28360 1 447 430 449
28361 2 447 430 451
28362 1 447 430 28
28363 3 447 430 29
28364 3 447 430 32
28365 1 447 430 49
28366 1 449 430 451
28367 3 449 430 28
28368 4 449 430 29
28369 3 449 430 32
28370 2 449 430 49
28371 3 451 430 28
28372 3 451 430 29
28373 1 451 430 32
28374 1 451 430 49
28375 1 28 430 29
28376 2 28 430 32
28377 1 28 430 49
28378 1 29 430 32
28379 2 29 430 49
28380 1 32 430 49
28381 1 410 431 412
28382 2 410 431 414
28383 1 410 431 429
28384 2 410 431 430
28385 3 410 431 432
28386 3 410 431 433
28387 4 410 431 434
28388 1 410 431 12
28389 1 410 431 29
28390 3 410 431 32
28391 3 410 431 33
28392 1 412 431 414
28393 1 412 431 429
28394 3 412 431 430
28395 2 412 431 432
28396 1 412 431 433
28397 3 412 431 434
28398 2 412 431 12
28399 3 412 431 29
28400 4 412 431 32
28401 3 412 431 33
28402 3 414 431 429
28403 4 414 431 430
28404 3 414 431 432
28405 1 414 431 433
28406 2 414 431 434
28407 1 414 431 12
28408 3 414 431 29
28409 3 414 431 32
28410 1 414 431 33
28411 1 429 431 430
28412 1 429 431 432
28413 2 429 431 433
28414 3 429 431 434
28415 3 429 431 12
28416 2 429 431 29
28417 3 429 431 32
28418 4 429 431 33
28419 1 430 431 432
28420 3 430 431 433
28421 2 430 431 434
28422 3 430 431 12
28423 1 430 431 29
28424 1 430 431 32
28425 3 430 431 33
28426 1 432 431 433
28427 1 432 431 434
28428 4 432 431 12
28429 3 432 431 29
28430 2 432 431 32
28431 3 432 431 33
28432 1 433 431 434
28433 3 433 431 12
28434 4 433 431 29
28435 3 433 431 32
28436 2 433 431 33
28437 3 434 431 12
28438 3 434 431 29
28439 1 434 431 32
28440 1 434 431 33
28441 1 12 431 29
28442 2 12 431 32
28443 1 12 431 33
28444 1 29 431 32
28445 2 29 431 33
28446 1 32 431 33
28447 1 330 432 331
28448 2 330 432 334
28449 1 330 432 351
28450 1 330 432 429
28451 2 330 432 430
28452 3 330 432 431
28453 3 330 432 433
28454 4 330 432 434
28455 1 330 432 449
28456 3 330 432 451
28457 3 330 432 453
28458 1 331 432 334
28459 2 331 432 351
28460 1 331 432 429
28461 3 331 432 430
28462 2 331 432 431
28463 1 331 432 433
28464 3 331 432 434
28465 3 331 432 449
28466 4 331 432 451
28467 3 331 432 453
28468 1 334 432 351
28469 3 334 432 429
28470 4 334 432 430
28471 3 334 432 431
28472 1 334 432 433
28473 2 334 432 434
28474 3 334 432 449
28475 3 334 432 451
28476 1 334 432 453
28477 3 351 432 429
28478 3 351 432 430
28479 4 351 432 431
28480 3 351 432 433
28481 3 351 432 434
28482 1 351 432 449
28483 2 351 432 451
28484 1 351 432 453
28485 1 429 432 430
28486 1 429 432 431
28487 2 429 432 433
28488 3 429 432 434
28489 2 429 432 449
28490 3 429 432 451
28491 4 429 432 453
28492 1 430 432 431
28493 3 430 432 433
28494 2 430 432 434
28495 1 430 432 449
28496 1 430 432 451
28497 3 430 432 453
28498 1 431 432 433
28499 1 431 432 434
28500 3 431 432 449
28501 2 431 432 451
28502 3 431 432 453
28503 1 433 432 434
28504 4 433 432 449
28505 3 433 432 451
28506 2 433 432 453
28507 3 434 432 449
28508 1 434 432 451
28509 1 434 432 453
28510 1 449 432 451
28511 2 449 432 453
28512 1 451 432 453
28513 1 314 433 331
28514 2 314 433 334
28515 1 314 433 335
28516 1 314 433 412
28517 2 314 433 414
28518 1 314 433 416
28519 3 314 433 431
28520 3 314 433 432
28521 4 314 433 434
28522 3 314 433 435
28523 3 314 433 436
28524 1 331 433 334
28525 2 331 433 335
28526 1 331 433 412
28527 3 331 433 414
28528 3 331 433 416
28529 2 331 433 431
28530 1 331 433 432
28531 3 331 433 434
28532 4 331 433 435
28533 3 331 433 436
28534 1 334 433 335
28535 3 334 433 412
28536 4 334 433 414
28537 3 334 433 416
28538 3 334 433 431
28539 1 334 433 432
28540 2 334 433 434
28541 3 334 433 435
28542 1 334 433 436
28543 3 335 433 412
28544 3 335 433 414
28545 1 335 433 416
28546 4 335 433 431
28547 3 335 433 432
28548 3 335 433 434
28549 2 335 433 435
28550 1 335 433 436
28551 1 412 433 414
28552 2 412 433 416
28553 1 412 433 431
28554 2 412 433 432
28555 3 412 433 434
28556 3 412 433 435
28557 4 412 433 436
28558 1 414 433 416
28559 1 414 433 431
28560 3 414 433 432
28561 2 414 433 434
28562 1 414 433 435
28563 3 414 433 436
28564 3 416 433 431
28565 4 416 433 432
28566 3 416 433 434
28567 1 416 433 435
28568 2 416 433 436
28569 1 431 433 432
28570 1 431 433 434
28571 2 431 433 435
28572 3 431 433 436
28573 1 432 433 434
28574 3 432 433 435
28575 2 432 433 436
28576 1 434 433 435
28577 1 434 433 436
28578 1 435 433 436
28579 1 431 434 432
28580 1 431 434 433
28581 2 431 434 435
28582 3 431 434 436
28583 2 431 434 451
28584 3 431 434 453
28585 4 431 434 455
28586 1 431 434 32
28587 1 431 434 33
28588 3 431 434 36
28589 3 431 434 53
28590 1 432 434 433
28591 3 432 434 435
28592 2 432 434 436
28593 1 432 434 451
28594 1 432 434 453
28595 3 432 434 455
28596 2 432 434 32
28597 3 432 434 33
28598 4 432 434 36
28599 3 432 434 53
28600 1 433 434 435
28601 1 433 434 436
28602 3 433 434 451
28603 2 433 434 453
28604 3 433 434 455
28605 3 433 434 32
28606 2 433 434 33
28607 3 433 434 36
28608 4 433 434 53
28609 1 435 434 436
28610 4 435 434 451
28611 3 435 434 453
28612 2 435 434 455
28613 3 435 434 32
28614 1 435 434 33
28615 1 435 434 36
28616 3 435 434 53
28617 3 436 434 451
28618 1 436 434 453
28619 1 436 434 455
28620 4 436 434 32
28621 3 436 434 33
28622 2 436 434 36
28623 3 436 434 53
28624 1 451 434 453
28625 2 451 434 455
28626 1 451 434 32
28627 3 451 434 33
28628 3 451 434 36
28629 1 451 434 53
28630 1 453 434 455
28631 3 453 434 32
28632 4 453 434 33
28633 3 453 434 36
28634 2 453 434 53
28635 3 455 434 32
28636 3 455 434 33
28637 1 455 434 36
28638 1 455 434 53
28639 1 32 434 33
28640 2 32 434 36
28641 1 32 434 53
28642 1 33 434 36
28643 2 33 434 53
28644 1 36 434 53
28645 1 414 435 416
28646 2 414 435 418
28647 1 414 435 433
28648 2 414 435 434
28649 3 414 435 436
28650 3 414 435 437
28651 4 414 435 438
28652 1 414 435 16
28653 1 414 435 33
28654 3 414 435 36
28655 3 414 435 37
28656 1 416 435 418
28657 1 416 435 433
28658 3 416 435 434
28659 2 416 435 436
28660 1 416 435 437
28661 3 416 435 438
28662 2 416 435 16
28663 3 416 435 33
28664 4 416 435 36
28665 3 416 435 37
28666 3 418 435 433
28667 4 418 435 434
28668 3 418 435 436
28669 1 418 435 437
28670 2 418 435 438
28671 1 418 435 16
28672 3 418 435 33
28673 3 418 435 36
28674 1 418 435 37
28675 1 433 435 434
28676 1 433 435 436
28677 2 433 435 437
28678 3 433 435 438
28679 3 433 435 16
28680 2 433 435 33
28681 3 433 435 36
28682 4 433 435 37
28683 1 434 435 436
28684 3 434 435 437
28685 2 434 435 438
28686 3 434 435 16
28687 1 434 435 33
28688 1 434 435 36
28689 3 434 435 37
28690 1 436 435 437
28691 1 436 435 438
28692 4 436 435 16
28693 3 436 435 33
28694 2 436 435 36
28695 3 436 435 37
28696 1 437 435 438
28697 3 437 435 16
28698 4 437 435 33
28699 3 437 435 36
28700 2 437 435 37
28701 3 438 435 16
28702 3 438 435 33
28703 1 438 435 36
28704 1 438 435 37
28705 1 16 435 33
28706 2 16 435 36
28707 1 16 435 37
28708 1 33 435 36
28709 2 33 435 37
28710 1 36 435 37
28711 1 334 436 335
28712 2 334 436 338
28713 1 334 436 355
28714 1 334 436 433
28715 2 334 436 434
28716 3 334 436 435
28717 3 334 436 437
28718 4 334 436 438
28719 1 334 436 453
28720 3 334 436 455
28721 3 334 436 457
28722 1 335 436 338
28723 2 335 436 355
28724 1 335 436 433
28725 3 335 436 434
28726 2 335 436 435
28727 1 335 436 437
28728 3 335 436 438
28729 3 335 436 453
28730 4 335 436 455
28731 3 335 436 457
28732 1 338 436 355
28733 3 338 436 433
28734 4 338 436 434
28735 3 338 436 435
28736 1 338 436 437
28737 2 338 436 438
28738 3 338 436 453
28739 3 338 436 455
28740 1 338 436 457
28741 3 355 436 433
28742 3 355 436 434
28743 4 355 436 435
28744 3 355 436 437
28745 3 355 436 438
28746 1 355 436 453
28747 2 355 436 455
28748 1 355 436 457
28749 1 433 436 434
28750 1 433 436 435
28751 2 433 436 437
28752 3 433 436 438
28753 2 433 436 453
28754 3 433 436 455
28755 4 433 436 457
28756 1 434 436 435
28757 3 434 436 437
28758 2 434 436 438
28759 1 434 436 453
28760 1 434 436 455
28761 3 434 436 457
28762 1 435 436 437
28763 1 435 436 438
28764 3 435 436 453
28765 2 435 436 455
28766 3 435 436 457
28767 1 437 436 438
28768 4 437 436 453
28769 3 437 436 455
28770 2 437 436 457
28771 3 438 436 453
28772 1 438 436 455
28773 1 438 436 457
28774 1 453 436 455
28775 2 453 436 457
28776 1 455 436 457
28777 1 318 437 335
28778 2 318 437 338
28779 1 318 437 339
28780 1 318 437 416
28781 2 318 437 418
28782 1 318 437 420
28783 3 318 437 435
28784 3 318 437 436
28785 4 318 437 438
28786 3 318 437 439
28787 3 318 437 440
28788 1 335 437 338
28789 2 335 437 339
28790 1 335 437 416
28791 3 335 437 418
28792 3 335 437 420
28793 2 335 437 435
28794 1 335 437 436
28795 3 335 437 438
28796 4 335 437 439
28797 3 335 437 440
28798 1 338 437 339
28799 3 338 437 416
28800 4 338 437 418
28801 3 338 437 420
28802 3 338 437 435
28803 1 338 437 436
28804 2 338 437 438
28805 3 338 437 439
28806 1 338 437 440
28807 3 339 437 416
28808 3 339 437 418
28809 1 339 437 420
28810 4 339 437 435
28811 3 339 437 436
28812 3 339 437 438
28813 2 339 437 439
28814 1 339 437 440
28815 1 416 437 418
28816 2 416 437 420
28817 1 416 437 435
28818 2 416 437 436
28819 3 416 437 438
28820 3 416 437 439
28821 4 416 437 440
28822 1 418 437 420
28823 1 418 437 435
28824 3 418 437 436
28825 2 418 437 438
28826 1 418 437 439
28827 3 418 437 440
28828 3 420 437 435
28829 4 420 437 436
28830 3 420 437 438
28831 1 420 437 439
28832 2 420 437 440
28833 1 435 437 436
28834 1 435 437 438
28835 2 435 437 439
28836 3 435 437 440
28837 1 436 437 438
28838 3 436 437 439
28839 2 436 437 440
28840 1 438 437 439
28841 1 438 437 440
28842 1 439 437 440
28843 1 435 438 436
28844 1 435 438 437
28845 2 435 438 439
28846 3 435 438 440
28847 2 435 438 455
28848 3 435 438 457
28849 4 435 438 459
28850 1 435 438 36
28851 1 435 438 37
28852 3 435 438 40
28853 3 435 438 57
28854 1 436 438 437
28855 3 436 438 439
28856 2 436 438 440
28857 1 436 438 455
28858 1 436 438 457
28859 3 436 438 459
28860 2 436 438 36
28861 3 436 438 37
28862 4 436 438 40
28863 3 436 438 57
28864 1 437 438 439
28865 1 437 438 440
28866 3 437 438 455
28867 2 437 438 457
28868 3 437 438 459
28869 3 437 438 36
28870 2 437 438 37
28871 3 437 438 40
28872 4 437 438 57
28873 1 439 438 440
28874 4 439 438 455
28875 3 439 438 457
28876 2 439 438 459
28877 3 439 438 36
28878 1 439 438 37
28879 1 439 438 40
28880 3 439 438 57
28881 3 440 438 455
28882 1 440 438 457
28883 1 440 438 459
28884 4 440 438 36
28885 3 440 438 37
28886 2 440 438 40
28887 3 440 438 57
28888 1 455 438 457
28889 2 455 438 459
28890 1 455 438 36
28891 3 455 438 37
28892 3 455 438 40
28893 1 455 438 57
28894 1 457 438 459
28895 3 457 438 36
28896 4 457 438 37
28897 3 457 438 40
28898 2 457 438 57
28899 3 459 438 36
28900 3 459 438 37
28901 1 459 438 40
28902 1 459 438 57
28903 1 36 438 37
28904 2 36 438 40
28905 1 36 438 57
28906 1 37 438 40
28907 2 37 438 57
28908 1 40 438 57
28909 1 418 439 420
28910 2 418 439 402
28911 1 418 439 437
28912 2 418 439 438
28913 3 418 439 440
28914 3 418 439 421
28915 4 418 439 422
28916 1 418 439 20
28917 1 418 439 37
28918 3 418 439 40
28919 3 418 439 21
28920 1 420 439 402
28921 1 420 439 437
28922 3 420 439 438
28923 2 420 439 440
28924 1 420 439 421
28925 3 420 439 422
28926 2 420 439 20
28927 3 420 439 37
28928 4 420 439 40
28929 3 420 439 21
28930 3 402 439 437
28931 4 402 439 438
28932 3 402 439 440
28933 1 402 439 421
28934 2 402 439 422
28935 1 402 439 20
28936 3 402 439 37
28937 3 402 439 40
28938 1 402 439 21
28939 1 437 439 438
28940 1 437 439 440
28941 2 437 439 421
28942 3 437 439 422
28943 3 437 439 20
28944 2 437 439 37
28945 3 437 439 40
28946 4 437 439 21
28947 1 438 439 440
28948 3 438 439 421
28949 2 438 439 422
28950 3 438 439 20
28951 1 438 439 37
28952 1 438 439 40
28953 3 438 439 21
28954 1 440 439 421
28955 1 440 439 422
28956 4 440 439 20
28957 3 440 439 37
28958 2 440 439 40
28959 3 440 439 21
28960 1 421 439 422
28961 3 421 439 20
28962 4 421 439 37
28963 3 421 439 40
28964 2 421 439 21
28965 3 422 439 20
28966 3 422 439 37
28967 1 422 439 40
28968 1 422 439 21
28969 1 20 439 37
28970 2 20 439 40
28971 1 20 439 21
28972 1 37 439 40
28973 2 37 439 21
28974 1 40 439 21
28975 1 338 440 339
28976 2 338 440 322
28977 1 338 440 359
28978 1 338 440 437
28979 2 338 440 438
28980 3 338 440 439
28981 3 338 440 421
28982 4 338 440 422
28983 1 338 440 457
28984 3 338 440 459
28985 3 338 440 441
28986 1 339 440 322
28987 2 339 440 359
28988 1 339 440 437
28989 3 339 440 438
28990 2 339 440 439
28991 1 339 440 421
28992 3 339 440 422
28993 3 339 440 457
28994 4 339 440 459
28995 3 339 440 441
28996 1 322 440 359
28997 3 322 440 437
28998 4 322 440 438
28999 3 322 440 439
29000 1 322 440 421
29001 2 322 440 422
29002 3 322 440 457
29003 3 322 440 459
29004 1 322 440 441
29005 3 359 440 437
29006 3 359 440 438
29007 4 359 440 439
29008 3 359 440 421
29009 3 359 440 422
29010 1 359 440 457
29011 2 359 440 459
29012 1 359 440 441
29013 1 437 440 438
29014 1 437 440 439
29015 2 437 440 421
29016 3 437 440 422
29017 2 437 440 457
29018 3 437 440 459
29019 4 437 440 441
29020 1 438 440 439
29021 3 438 440 421
29022 2 438 440 422
29023 1 438 440 457
29024 1 438 440 459
29025 3 438 440 441
29026 1 439 440 421
29027 1 439 440 422
29028 3 439 440 457
29029 2 439 440 459
29030 3 439 440 441
29031 1 421 440 422
29032 4 421 440 457
29033 3 421 440 459
29034 2 421 440 441
29035 3 422 440 457
29036 1 422 440 459
29037 1 422 440 441
29038 1 457 440 459
29039 2 457 440 441
29040 1 459 440 441
29041 1 322 441 359
29042 2 322 441 342
29043 1 322 441 343
29044 1 322 441 440
29045 2 322 441 422
29046 1 322 441 424
29047 3 322 441 459
29048 3 322 441 460
29049 4 322 441 442
29050 3 322 441 443
29051 3 322 441 444
29052 1 359 441 342
29053 2 359 441 343
29054 1 359 441 440
29055 3 359 441 422
29056 3 359 441 424
29057 2 359 441 459
29058 1 359 441 460
29059 3 359 441 442
29060 4 359 441 443
29061 3 359 441 444
29062 1 342 441 343
29063 3 342 441 440
29064 4 342 441 422
29065 3 342 441 424
29066 3 342 441 459
29067 1 342 441 460
29068 2 342 441 442
29069 3 342 441 443
29070 1 342 441 444
29071 3 343 441 440
29072 3 343 441 422
29073 1 343 441 424
29074 4 343 441 459
29075 3 343 441 460
29076 3 343 441 442
29077 2 343 441 443
29078 1 343 441 444
29079 1 440 441 422
29080 2 440 441 424
29081 1 440 441 459
29082 2 440 441 460
29083 3 440 441 442
29084 3 440 441 443
29085 4 440 441 444
29086 1 422 441 424
29087 1 422 441 459
29088 3 422 441 460
29089 2 422 441 442
29090 1 422 441 443
29091 3 422 441 444
29092 3 424 441 459
29093 4 424 441 460
29094 3 424 441 442
29095 1 424 441 443
29096 2 424 441 444
29097 1 459 441 460
29098 1 459 441 442
29099 2 459 441 443
29100 3 459 441 444
29101 1 460 441 442
29102 3 460 441 443
29103 2 460 441 444
29104 1 442 441 443
29105 1 442 441 444
29106 1 443 441 444
29107 1 459 442 460
29108 1 459 442 441
29109 2 459 442 443
29110 3 459 442 444
29111 2 459 442 479
29112 3 459 442 461
29113 4 459 442 463
29114 1 459 442 60
29115 1 459 442 41
29116 3 459 442 44
29117 3 459 442 61
29118 1 460 442 441
29119 3 460 442 443
29120 2 460 442 444
29121 1 460 442 479
29122 1 460 442 461
29123 3 460 442 463
29124 2 460 442 60
29125 3 460 442 41
29126 4 460 442 44
29127 3 460 442 61
29128 1 441 442 443
29129 1 441 442 444
29130 3 441 442 479
29131 2 441 442 461
29132 3 441 442 463
29133 3 441 442 60
29134 2 441 442 41
29135 3 441 442 44
29136 4 441 442 61
29137 1 443 442 444
29138 4 443 442 479
29139 3 443 442 461
29140 2 443 442 463
29141 3 443 442 60
29142 1 443 442 41
29143 1 443 442 44
29144 3 443 442 61
29145 3 444 442 479
29146 1 444 442 461
29147 1 444 442 463
29148 4 444 442 60
29149 3 444 442 41
29150 2 444 442 44
29151 3 444 442 61
29152 1 479 442 461
29153 2 479 442 463
29154 1 479 442 60
29155 3 479 442 41
29156 3 479 442 44
29157 1 479 442 61
29158 1 461 442 463
29159 3 461 442 60
29160 4 461 442 41
29161 3 461 442 44
29162 2 461 442 61
29163 3 463 442 60
29164 3 463 442 41
29165 1 463 442 44
29166 1 463 442 61
29167 1 60 442 41
29168 2 60 442 44
29169 1 60 442 61
29170 1 41 442 44
29171 2 41 442 61
29172 1 44 442 61
29173 1 422 443 424
29174 2 422 443 426
29175 1 422 443 441
29176 2 422 443 442
29177 3 422 443 444
29178 3 422 443 445
29179 4 422 443 446
29180 1 422 443 24
29181 1 422 443 41
29182 3 422 443 44
29183 3 422 443 45
29184 1 424 443 426
29185 1 424 443 441
29186 3 424 443 442
29187 2 424 443 444
29188 1 424 443 445
29189 3 424 443 446
29190 2 424 443 24
29191 3 424 443 41
29192 4 424 443 44
29193 3 424 443 45
29194 3 426 443 441
29195 4 426 443 442
29196 3 426 443 444
29197 1 426 443 445
29198 2 426 443 446
29199 1 426 443 24
29200 3 426 443 41
29201 3 426 443 44
29202 1 426 443 45
29203 1 441 443 442
29204 1 441 443 444
29205 2 441 443 445
29206 3 441 443 446
29207 3 441 443 24
29208 2 441 443 41
29209 3 441 443 44
29210 4 441 443 45
29211 1 442 443 444
29212 3 442 443 445
29213 2 442 443 446
29214 3 442 443 24
29215 1 442 443 41
29216 1 442 443 44
29217 3 442 443 45
29218 1 444 443 445
29219 1 444 443 446
29220 4 444 443 24
29221 3 444 443 41
29222 2 444 443 44
29223 3 444 443 45
29224 1 445 443 446
29225 3 445 443 24
29226 4 445 443 41
29227 3 445 443 44
29228 2 445 443 45
29229 3 446 443 24
29230 3 446 443 41
29231 1 446 443 44
29232 1 446 443 45
29233 1 24 443 41
29234 2 24 443 44
29235 1 24 443 45
29236 1 41 443 44
29237 2 41 443 45
29238 1 44 443 45
29239 1 342 444 343
29240 2 342 444 346
29241 1 342 444 363
29242 1 342 444 441
29243 2 342 444 442
29244 3 342 444 443
29245 3 342 444 445
29246 4 342 444 446
29247 1 342 444 461
29248 3 342 444 463
29249 3 342 444 465
29250 1 343 444 346
29251 2 343 444 363
29252 1 343 444 441
29253 3 343 444 442
29254 2 343 444 443
29255 1 343 444 445
29256 3 343 444 446
29257 3 343 444 461
29258 4 343 444 463
29259 3 343 444 465
29260 1 346 444 363
29261 3 346 444 441
29262 4 346 444 442
29263 3 346 444 443
29264 1 346 444 445
29265 2 346 444 446
29266 3 346 444 461
29267 3 346 444 463
29268 1 346 444 465
29269 3 363 444 441
29270 3 363 444 442
29271 4 363 444 443
29272 3 363 444 445
29273 3 363 444 446
29274 1 363 444 461
29275 2 363 444 463
29276 1 363 444 465
29277 1 441 444 442
29278 1 441 444 443
29279 2 441 444 445
29280 3 441 444 446
29281 2 441 444 461
29282 3 441 444 463
29283 4 441 444 465
29284 1 442 444 443
29285 3 442 444 445
29286 2 442 444 446
29287 1 442 444 461
29288 1 442 444 463
29289 3 442 444 465
29290 1 443 444 445
29291 1 443 444 446
29292 3 443 444 461
29293 2 443 444 463
29294 3 443 444 465
29295 1 445 444 446
29296 4 445 444 461
29297 3 445 444 463
29298 2 445 444 465
29299 3 446 444 461
29300 1 446 444 463
29301 1 446 444 465
29302 1 461 444 463
29303 2 461 444 465
29304 1 463 444 465
29305 1 326 445 343
29306 2 326 445 346
29307 1 326 445 347
29308 1 326 445 424
29309 2 326 445 426
29310 1 326 445 428
29311 3 326 445 443
29312 3 326 445 444
29313 4 326 445 446
29314 3 326 445 447
29315 3 326 445 448
29316 1 343 445 346
29317 2 343 445 347
29318 1 343 445 424
29319 3 343 445 426
29320 3 343 445 428
29321 2 343 445 443
29322 1 343 445 444
29323 3 343 445 446
29324 4 343 445 447
29325 3 343 445 448
29326 1 346 445 347
29327 3 346 445 424
29328 4 346 445 426
29329 3 346 445 428
29330 3 346 445 443
29331 1 346 445 444
29332 2 346 445 446
29333 3 346 445 447
29334 1 346 445 448
29335 3 347 445 424
29336 3 347 445 426
29337 1 347 445 428
29338 4 347 445 443
29339 3 347 445 444
29340 3 347 445 446
29341 2 347 445 447
29342 1 347 445 448
29343 1 424 445 426
29344 2 424 445 428
29345 1 424 445 443
29346 2 424 445 444
29347 3 424 445 446
29348 3 424 445 447
29349 4 424 445 448
29350 1 426 445 428
29351 1 426 445 443
29352 3 426 445 444
29353 2 426 445 446
29354 1 426 445 447
29355 3 426 445 448
29356 3 428 445 443
29357 4 428 445 444
29358 3 428 445 446
29359 1 428 445 447
29360 2 428 445 448
29361 1 443 445 444
29362 1 443 445 446
29363 2 443 445 447
29364 3 443 445 448
29365 1 444 445 446
29366 3 444 445 447
29367 2 444 445 448
29368 1 446 445 447
29369 1 446 445 448
29370 1 447 445 448
29371 1 443 446 444
29372 1 443 446 445
29373 2 443 446 447
29374 3 443 446 448
29375 2 443 446 463
29376 3 443 446 465
29377 4 443 446 467
29378 1 443 446 44
29379 1 443 446 45
29380 3 443 446 48
29381 3 443 446 65
29382 1 444 446 445
29383 3 444 446 447
29384 2 444 446 448
29385 1 444 446 463
29386 1 444 446 465
29387 3 444 446 467
29388 2 444 446 44
29389 3 444 446 45
29390 4 444 446 48
29391 3 444 446 65
29392 1 445 446 447
29393 1 445 446 448
29394 3 445 446 463
29395 2 445 446 465
29396 3 445 446 467
29397 3 445 446 44
29398 2 445 446 45
29399 3 445 446 48
29400 4 445 446 65
29401 1 447 446 448
29402 4 447 446 463
29403 3 447 446 465
29404 2 447 446 467
29405 3 447 446 44
29406 1 447 446 45
29407 1 447 446 48
29408 3 447 446 65
29409 3 448 446 463
29410 1 448 446 465
29411 1 448 446 467
29412 4 448 446 44
29413 3 448 446 45
29414 2 448 446 48
29415 3 448 446 65
29416 1 463 446 465
29417 2 463 446 467
29418 1 463 446 44
29419 3 463 446 45
29420 3 463 446 48
29421 1 463 446 65
29422 1 465 446 467
29423 3 465 446 44
29424 4 465 446 45
29425 3 465 446 48
29426 2 465 446 65
29427 3 467 446 44
29428 3 467 446 45
29429 1 467 446 48
29430 1 467 446 65
29431 1 44 446 45
29432 2 44 446 48
29433 1 44 446 65
29434 1 45 446 48
29435 2 45 446 65
29436 1 48 446 65
29437 1 426 447 428
29438 2 426 447 430
29439 1 426 447 445
29440 2 426 447 446
29441 3 426 447 448
29442 3 426 447 449
29443 4 426 447 450
29444 1 426 447 28
29445 1 426 447 45
29446 3 426 447 48
29447 3 426 447 49
29448 1 428 447 430
29449 1 428 447 445
29450 3 428 447 446
29451 2 428 447 448
29452 1 428 447 449
29453 3 428 447 450
29454 2 428 447 28
29455 3 428 447 45
29456 4 428 447 48
29457 3 428 447 49
29458 3 430 447 445
29459 4 430 447 446
29460 3 430 447 448
29461 1 430 447 449
29462 2 430 447 450
29463 1 430 447 28
29464 3 430 447 45
29465 3 430 447 48
29466 1 430 447 49
29467 1 445 447 446
29468 1 445 447 448
29469 2 445 447 449
29470 3 445 447 450
29471 3 445 447 28
29472 2 445 447 45
29473 3 445 447 48
29474 4 445 447 49
29475 1 446 447 448
29476 3 446 447 449
29477 2 446 447 450
29478 3 446 447 28
29479 1 446 447 45
29480 1 446 447 48
29481 3 446 447 49
29482 1 448 447 449
29483 1 448 447 450
29484 4 448 447 28
29485 3 448 447 45
29486 2 448 447 48
29487 3 448 447 49
29488 1 449 447 450
29489 3 449 447 28
29490 4 449 447 45
29491 3 449 447 48
29492 2 449 447 49
29493 3 450 447 28
29494 3 450 447 45
29495 1 450 447 48
29496 1 450 447 49
29497 1 28 447 45
29498 2 28 447 48
29499 1 28 447 49
29500 1 45 447 48
29501 2 45 447 49
29502 1 48 447 49
29503 1 346 448 347
29504 2 346 448 350
29505 1 346 448 367
29506 1 346 448 445
29507 2 346 448 446
29508 3 346 448 447
29509 3 346 448 449
29510 4 346 448 450
29511 1 346 448 465
29512 3 346 448 467
29513 3 346 448 469
29514 1 347 448 350
29515 2 347 448 367
29516 1 347 448 445
29517 3 347 448 446
29518 2 347 448 447
29519 1 347 448 449
29520 3 347 448 450
29521 3 347 448 465
29522 4 347 448 467
29523 3 347 448 469
29524 1 350 448 367
29525 3 350 448 445
29526 4 350 448 446
29527 3 350 448 447
29528 1 350 448 449
29529 2 350 448 450
29530 3 350 448 465
29531 3 350 448 467
29532 1 350 448 469
29533 3 367 448 445
29534 3 367 448 446
29535 4 367 448 447
29536 3 367 448 449
29537 3 367 448 450
29538 1 367 448 465
29539 2 367 448 467
29540 1 367 448 469
29541 1 445 448 446
29542 1 445 448 447
29543 2 445 448 449
29544 3 445 448 450
29545 2 445 448 465
29546 3 445 448 467
29547 4 445 448 469
29548 1 446 448 447
29549 3 446 448 449
29550 2 446 448 450
29551 1 446 448 465
29552 1 446 448 467
29553 3 446 448 469
29554 1 447 448 449
29555 1 447 448 450
29556 3 447 448 465
29557 2 447 448 467
29558 3 447 448 469
29559 1 449 448 450
29560 4 449 448 465
29561 3 449 448 467
29562 2 449 448 469
29563 3 450 448 465
29564 1 450 448 467
29565 1 450 448 469
29566 1 465 448 467
29567 2 465 448 469
29568 1 467 448 469
29569 1 330 449 347
29570 2 330 449 350
29571 1 330 449 351
29572 1 330 449 428
29573 2 330 449 430
29574 1 330 449 432
29575 3 330 449 447
29576 3 330 449 448
29577 4 330 449 450
29578 3 330 449 451
29579 3 330 449 452
29580 1 347 449 350
29581 2 347 449 351
29582 1 347 449 428
29583 3 347 449 430
29584 3 347 449 432
29585 2 347 449 447
29586 1 347 449 448
29587 3 347 449 450
29588 4 347 449 451
29589 3 347 449 452
29590 1 350 449 351
29591 3 350 449 428
29592 4 350 449 430
29593 3 350 449 432
29594 3 350 449 447
29595 1 350 449 448
29596 2 350 449 450
29597 3 350 449 451
29598 1 350 449 452
29599 3 351 449 428
29600 3 351 449 430
29601 1 351 449 432
29602 4 351 449 447
29603 3 351 449 448
29604 3 351 449 450
29605 2 351 449 451
29606 1 351 449 452
29607 1 428 449 430
29608 2 428 449 432
29609 1 428 449 447
29610 2 428 449 448
29611 3 428 449 450
29612 3 428 449 451
29613 4 428 449 452
29614 1 430 449 432
29615 1 430 449 447
29616 3 430 449 448
29617 2 430 449 450
29618 1 430 449 451
29619 3 430 449 452
29620 3 432 449 447
29621 4 432 449 448
29622 3 432 449 450
29623 1 432 449 451
29624 2 432 449 452
29625 1 447 449 448
29626 1 447 449 450
29627 2 447 449 451
29628 3 447 449 452
29629 1 448 449 450
29630 3 448 449 451
29631 2 448 449 452
29632 1 450 449 451
29633 1 450 449 452
29634 1 451 449 452
29635 1 447 450 448
29636 1 447 450 449
29637 2 447 450 451
29638 3 447 450 452
29639 2 447 450 467
29640 3 447 450 469
29641 4 447 450 471
29642 1 447 450 48
29643 1 447 450 49
29644 3 447 450 52
29645 3 447 450 69
29646 1 448 450 449
29647 3 448 450 451
29648 2 448 450 452
29649 1 448 450 467
29650 1 448 450 469
29651 3 448 450 471
29652 2 448 450 48
29653 3 448 450 49
29654 4 448 450 52
29655 3 448 450 69
29656 1 449 450 451
29657 1 449 450 452
29658 3 449 450 467
29659 2 449 450 469
29660 3 449 450 471
29661 3 449 450 48
29662 2 449 450 49
29663 3 449 450 52
29664 4 449 450 69
29665 1 451 450 452
29666 4 451 450 467
29667 3 451 450 469
29668 2 451 450 471
29669 3 451 450 48
29670 1 451 450 49
29671 1 451 450 52
29672 3 451 450 69
29673 3 452 450 467
29674 1 452 450 469
29675 1 452 450 471
29676 4 452 450 48
29677 3 452 450 49
29678 2 452 450 52
29679 3 452 450 69
29680 1 467 450 469
29681 2 467 450 471
29682 1 467 450 48
29683 3 467 450 49
29684 3 467 450 52
29685 1 467 450 69
29686 1 469 450 471
29687 3 469 450 48
29688 4 469 450 49
29689 3 469 450 52
29690 2 469 450 69
29691 3 471 450 48
29692 3 471 450 49
29693 1 471 450 52
29694 1 471 450 69
29695 1 48 450 49
29696 2 48 450 52
29697 1 48 450 69
29698 1 49 450 52
29699 2 49 450 69
29700 1 52 450 69
29701 1 430 451 432
29702 2 430 451 434
29703 1 430 451 449
29704 2 430 451 450
29705 3 430 451 452
29706 3 430 451 453
29707 4 430 451 454
29708 1 430 451 32
29709 1 430 451 49
29710 3 430 451 52
29711 3 430 451 53
29712 1 432 451 434
29713 1 432 451 449
29714 3 432 451 450
29715 2 432 451 452
29716 1 432 451 453
29717 3 432 451 454
29718 2 432 451 32
29719 3 432 451 49
29720 4 432 451 52
29721 3 432 451 53
29722 3 434 451 449
29723 4 434 451 450
29724 3 434 451 452
29725 1 434 451 453
29726 2 434 451 454
29727 1 434 451 32
29728 3 434 451 49
29729 3 434 451 52
29730 1 434 451 53
29731 1 449 451 450
29732 1 449 451 452
29733 2 449 451 453
29734 3 449 451 454
29735 3 449 451 32
29736 2 449 451 49
29737 3 449 451 52
29738 4 449 451 53
29739 1 450 451 452
29740 3 450 451 453
29741 2 450 451 454
29742 3 450 451 32
29743 1 450 451 49
29744 1 450 451 52
29745 3 450 451 53
29746 1 452 451 453
29747 1 452 451 454
29748 4 452 451 32
29749 3 452 451 49
29750 2 452 451 52
29751 3 452 451 53
29752 1 453 451 454
29753 3 453 451 32
29754 4 453 451 49
29755 3 453 451 52
29756 2 453 451 53
29757 3 454 451 32
29758 3 454 451 49
29759 1 454 451 52
29760 1 454 451 53
29761 1 32 451 49
29762 2 32 451 52
29763 1 32 451 53
29764 1 49 451 52
29765 2 49 451 53
29766 1 52 451 53
29767 1 350 452 351
29768 2 350 452 354
29769 1 350 452 371
29770 1 350 452 449
29771 2 350 452 450
29772 3 350 452 451
29773 3 350 452 453
29774 4 350 452 454
29775 1 350 452 469
29776 3 350 452 471
29777 3 350 452 473
29778 1 351 452 354
29779 2 351 452 371
29780 1 351 452 449
29781 3 351 452 450
29782 2 351 452 451
29783 1 351 452 453
29784 3 351 452 454
29785 3 351 452 469
29786 4 351 452 471
29787 3 351 452 473
29788 1 354 452 371
29789 3 354 452 449
29790 4 354 452 450
29791 3 354 452 451
29792 1 354 452 453
29793 2 354 452 454
29794 3 354 452 469
29795 3 354 452 471
29796 1 354 452 473
29797 3 371 452 449
29798 3 371 452 450
29799 4 371 452 451
29800 3 371 452 453
29801 3 371 452 454
29802 1 371 452 469
29803 2 371 452 471
29804 1 371 452 473
29805 1 449 452 450
29806 1 449 452 451
29807 2 449 452 453
29808 3 449 452 454
29809 2 449 452 469
29810 3 449 452 471
29811 4 449 452 473
29812 1 450 452 451
29813 3 450 452 453
29814 2 450 452 454
29815 1 450 452 469
29816 1 450 452 471
29817 3 450 452 473
29818 1 451 452 453
29819 1 451 452 454
29820 3 451 452 469
29821 2 451 452 471
29822 3 451 452 473
29823 1 453 452 454
29824 4 453 452 469
29825 3 453 452 471
29826 2 453 452 473
29827 3 454 452 469
29828 1 454 452 471
29829 1 454 452 473
29830 1 469 452 471
29831 2 469 452 473
29832 1 471 452 473
29833 1 334 453 351
29834 2 334 453 354
29835 1 334 453 355
29836 1 334 453 432
29837 2 334 453 434
29838 1 334 453 436
29839 3 334 453 451
29840 3 334 453 452
29841 4 334 453 454
29842 3 334 453 455
29843 3 334 453 456
29844 1 351 453 354
29845 2 351 453 355
29846 1 351 453 432
29847 3 351 453 434
29848 3 351 453 436
29849 2 351 453 451
29850 1 351 453 452
29851 3 351 453 454
29852 4 351 453 455
29853 3 351 453 456
29854 1 354 453 355
29855 3 354 453 432
29856 4 354 453 434
29857 3 354 453 436
29858 3 354 453 451
29859 1 354 453 452
29860 2 354 453 454
29861 3 354 453 455
29862 1 354 453 456
29863 3 355 453 432
29864 3 355 453 434
29865 1 355 453 436
29866 4 355 453 451
29867 3 355 453 452
29868 3 355 453 454
29869 2 355 453 455
29870 1 355 453 456
29871 1 432 453 434
29872 2 432 453 436
29873 1 432 453 451
29874 2 432 453 452
29875 3 432 453 454
29876 3 432 453 455
29877 4 432 453 456
29878 1 434 453 436
29879 1 434 453 451
29880 3 434 453 452
29881 2 434 453 454
29882 1 434 453 455
29883 3 434 453 456
29884 3 436 453 451
29885 4 436 453 452
29886 3 436 453 454
29887 1 436 453 455
29888 2 436 453 456
29889 1 451 453 452
29890 1 451 453 454
29891 2 451 453 455
29892 3 451 453 456
29893 1 452 453 454
29894 3 452 453 455
29895 2 452 453 456
29896 1 454 453 455
29897 1 454 453 456
29898 1 455 453 456
29899 1 451 454 452
29900 1 451 454 453
29901 2 451 454 455
29902 3 451 454 456
29903 2 451 454 471
29904 3 451 454 473
29905 4 451 454 475
29906 1 451 454 52
29907 1 451 454 53
29908 3 451 454 56
29909 3 451 454 73
29910 1 452 454 453
29911 3 452 454 455
29912 2 452 454 456
29913 1 452 454 471
29914 1 452 454 473
29915 3 452 454 475
29916 2 452 454 52
29917 3 452 454 53
29918 4 452 454 56
29919 3 452 454 73
29920 1 453 454 455
29921 1 453 454 456
29922 3 453 454 471
29923 2 453 454 473
29924 3 453 454 475
29925 3 453 454 52
29926 2 453 454 53
29927 3 453 454 56
29928 4 453 454 73
29929 1 455 454 456
29930 4 455 454 471
29931 3 455 454 473
29932 2 455 454 475
29933 3 455 454 52
29934 1 455 454 53
29935 1 455 454 56
29936 3 455 454 73
29937 3 456 454 471
29938 1 456 454 473
29939 1 456 454 475
29940 4 456 454 52
29941 3 456 454 53
29942 2 456 454 56
29943 3 456 454 73
29944 1 471 454 473
29945 2 471 454 475
29946 1 471 454 52
29947 3 471 454 53
29948 3 471 454 56
29949 1 471 454 73
29950 1 473 454 475
29951 3 473 454 52
29952 4 473 454 53
29953 3 473 454 56
29954 2 473 454 73
29955 3 475 454 52
29956 3 475 454 53
29957 1 475 454 56
29958 1 475 454 73
29959 1 52 454 53
29960 2 52 454 56
29961 1 52 454 73
29962 1 53 454 56
29963 2 53 454 73
29964 1 56 454 73
29965 1 434 455 436
29966 2 434 455 438
29967 1 434 455 453
29968 2 434 455 454
29969 3 434 455 456
29970 3 434 455 457
29971 4 434 455 458
29972 1 434 455 36
29973 1 434 455 53
29974 3 434 455 56
29975 3 434 455 57
29976 1 436 455 438
29977 1 436 455 453
29978 3 436 455 454
29979 2 436 455 456
29980 1 436 455 457
29981 3 436 455 458
29982 2 436 455 36
29983 3 436 455 53
29984 4 436 455 56
29985 3 436 455 57
29986 3 438 455 453
29987 4 438 455 454
29988 3 438 455 456
29989 1 438 455 457
29990 2 438 455 458
29991 1 438 455 36
29992 3 438 455 53
29993 3 438 455 56
29994 1 438 455 57
29995 1 453 455 454
29996 1 453 455 456
29997 2 453 455 457
29998 3 453 455 458
29999 3 453 455 36
30000 2 453 455 53
30001 3 453 455 56
30002 4 453 455 57
30003 1 454 455 456
30004 3 454 455 457
30005 2 454 455 458
30006 3 454 455 36
30007 1 454 455 53
30008 1 454 455 56
30009 3 454 455 57
30010 1 456 455 457
30011 1 456 455 458
30012 4 456 455 36
30013 3 456 455 53
30014 2 456 455 56
30015 3 456 455 57
30016 1 457 455 458
30017 3 457 455 36
30018 4 457 455 53
30019 3 457 455 56
30020 2 457 455 57
30021 3 458 455 36
30022 3 458 455 53
30023 1 458 455 56
30024 1 458 455 57
30025 1 36 455 53
30026 2 36 455 56
30027 1 36 455 57
30028 1 53 455 56
30029 2 53 455 57
30030 1 56 455 57
30031 1 354 456 355
30032 2 354 456 358
30033 1 354 456 375
30034 1 354 456 453
30035 2 354 456 454
30036 3 354 456 455
30037 3 354 456 457
30038 4 354 456 458
30039 1 354 456 473
30040 3 354 456 475
30041 3 354 456 477
30042 1 355 456 358
30043 2 355 456 375
30044 1 355 456 453
30045 3 355 456 454
30046 2 355 456 455
30047 1 355 456 457
30048 3 355 456 458
30049 3 355 456 473
30050 4 355 456 475
30051 3 355 456 477
30052 1 358 456 375
30053 3 358 456 453
30054 4 358 456 454
30055 3 358 456 455
30056 1 358 456 457
30057 2 358 456 458
30058 3 358 456 473
30059 3 358 456 475
30060 1 358 456 477
30061 3 375 456 453
30062 3 375 456 454
30063 4 375 456 455
30064 3 375 456 457
30065 3 375 456 458
30066 1 375 456 473
30067 2 375 456 475
30068 1 375 456 477
30069 1 453 456 454
30070 1 453 456 455
30071 2 453 456 457
30072 3 453 456 458
30073 2 453 456 473
30074 3 453 456 475
30075 4 453 456 477
30076 1 454 456 455
30077 3 454 456 457
30078 2 454 456 458
30079 1 454 456 473
30080 1 454 456 475
30081 3 454 456 477
30082 1 455 456 457
30083 1 455 456 458
30084 3 455 456 473
30085 2 455 456 475
30086 3 455 456 477
30087 1 457 456 458
30088 4 457 456 473
30089 3 457 456 475
30090 2 457 456 477
30091 3 458 456 473
30092 1 458 456 475
30093 1 458 456 477
30094 1 473 456 475
30095 2 473 456 477
30096 1 475 456 477
30097 1 338 457 355
30098 2 338 457 358
30099 1 338 457 359
30100 1 338 457 436
30101 2 338 457 438
30102 1 338 457 440
30103 3 338 457 455
30104 3 338 457 456
30105 4 338 457 458
30106 3 338 457 459
30107 3 338 457 460
30108 1 355 457 358
30109 2 355 457 359
30110 1 355 457 436
30111 3 355 457 438
30112 3 355 457 440
30113 2 355 457 455
30114 1 355 457 456
30115 3 355 457 458
30116 4 355 457 459
30117 3 355 457 460
30118 1 358 457 359
30119 3 358 457 436
30120 4 358 457 438
30121 3 358 457 440
30122 3 358 457 455
30123 1 358 457 456
30124 2 358 457 458
30125 3 358 457 459
30126 1 358 457 460
30127 3 359 457 436
30128 3 359 457 438
30129 1 359 457 440
30130 4 359 457 455
30131 3 359 457 456
30132 3 359 457 458
30133 2 359 457 459
30134 1 359 457 460
30135 1 436 457 438
30136 2 436 457 440
30137 1 436 457 455
30138 2 436 457 456
30139 3 436 457 458
30140 3 436 457 459
30141 4 436 457 460
30142 1 438 457 440
30143 1 438 457 455
30144 3 438 457 456
30145 2 438 457 458
30146 1 438 457 459
30147 3 438 457 460
30148 3 440 457 455
30149 4 440 457 456
30150 3 440 457 458
30151 1 440 457 459
30152 2 440 457 460
30153 1 455 457 456
30154 1 455 457 458
30155 2 455 457 459
30156 3 455 457 460
30157 1 456 457 458
30158 3 456 457 459
30159 2 456 457 460
30160 1 458 457 459
30161 1 458 457 460
30162 1 459 457 460
30163 1 455 458 456
30164 1 455 458 457
30165 2 455 458 459
30166 3 455 458 460
30167 2 455 458 475
30168 3 455 458 477
30169 4 455 458 479
30170 1 455 458 56
30171 1 455 458 57
30172 3 455 458 60
30173 3 455 458 77
30174 1 456 458 457
30175 3 456 458 459
30176 2 456 458 460
30177 1 456 458 475
30178 1 456 458 477
30179 3 456 458 479
30180 2 456 458 56
30181 3 456 458 57
30182 4 456 458 60
30183 3 456 458 77
30184 1 457 458 459
30185 1 457 458 460
30186 3 457 458 475
30187 2 457 458 477
30188 3 457 458 479
30189 3 457 458 56
30190 2 457 458 57
30191 3 457 458 60
30192 4 457 458 77
30193 1 459 458 460
30194 4 459 458 475
30195 3 459 458 477
30196 2 459 458 479
30197 3 459 458 56
30198 1 459 458 57
30199 1 459 458 60
30200 3 459 458 77
30201 3 460 458 475
30202 1 460 458 477
30203 1 460 458 479
30204 4 460 458 56
30205 3 460 458 57
30206 2 460 458 60
30207 3 460 458 77
30208 1 475 458 477
30209 2 475 458 479
30210 1 475 458 56
30211 3 475 458 57
30212 3 475 458 60
30213 1 475 458 77
30214 1 477 458 479
30215 3 477 458 56
30216 4 477 458 57
30217 3 477 458 60
30218 2 477 458 77
30219 3 479 458 56
30220 3 479 458 57
30221 1 479 458 60
30222 1 479 458 77
30223 1 56 458 57
30224 2 56 458 60
30225 1 56 458 77
30226 1 57 458 60
30227 2 57 458 77
30228 1 60 458 77
30229 1 438 459 440
30230 2 438 459 422
30231 1 438 459 457
30232 2 438 459 458
30233 3 438 459 460
30234 3 438 459 441
30235 4 438 459 442
30236 1 438 459 40
30237 1 438 459 57
30238 3 438 459 60
30239 3 438 459 41
30240 1 440 459 422
30241 1 440 459 457
30242 3 440 459 458
30243 2 440 459 460
30244 1 440 459 441
30245 3 440 459 442
30246 2 440 459 40
30247 3 440 459 57
30248 4 440 459 60
30249 3 440 459 41
30250 3 422 459 457
30251 4 422 459 458
30252 3 422 459 460
30253 1 422 459 441
30254 2 422 459 442
30255 1 422 459 40
30256 3 422 459 57
30257 3 422 459 60
30258 1 422 459 41
30259 1 457 459 458
30260 1 457 459 460
30261 2 457 459 441
30262 3 457 459 442
30263 3 457 459 40
30264 2 457 459 57
30265 3 457 459 60
30266 4 457 459 41
30267 1 458 459 460
30268 3 458 459 441
30269 2 458 459 442
30270 3 458 459 40
30271 1 458 459 57
30272 1 458 459 60
30273 3 458 459 41
30274 1 460 459 441
30275 1 460 459 442
30276 4 460 459 40
30277 3 460 459 57
30278 2 460 459 60
30279 3 460 459 41
30280 1 441 459 442
30281 3 441 459 40
30282 4 441 459 57
30283 3 441 459 60
30284 2 441 459 41
30285 3 442 459 40
30286 3 442 459 57
30287 1 442 459 60
30288 1 442 459 41
30289 1 40 459 57
30290 2 40 459 60
30291 1 40 459 41
30292 1 57 459 60
30293 2 57 459 41
30294 1 60 459 41
30295 1 358 460 359
30296 2 358 460 342
30297 1 358 460 379
30298 1 358 460 457
30299 2 358 460 458
30300 3 358 460 459
30301 3 358 460 441
30302 4 358 460 442
30303 1 358 460 477
30304 3 358 460 479
30305 3 358 460 461
30306 1 359 460 342
30307 2 359 460 379
30308 1 359 460 457
30309 3 359 460 458
30310 2 359 460 459
30311 1 359 460 441
30312 3 359 460 442
30313 3 359 460 477
30314 4 359 460 479
30315 3 359 460 461
30316 1 342 460 379
30317 3 342 460 457
30318 4 342 460 458
30319 3 342 460 459
30320 1 342 460 441
30321 2 342 460 442
30322 3 342 460 477
30323 3 342 460 479
30324 1 342 460 461
30325 3 379 460 457
30326 3 379 460 458
30327 4 379 460 459
30328 3 379 460 441
30329 3 379 460 442
30330 1 379 460 477
30331 2 379 460 479
30332 1 379 460 461
30333 1 457 460 458
30334 1 457 460 459
30335 2 457 460 441
30336 3 457 460 442
30337 2 457 460 477
30338 3 457 460 479
30339 4 457 460 461
30340 1 458 460 459
30341 3 458 460 441
30342 2 458 460 442
30343 1 458 460 477
30344 1 458 460 479
30345 3 458 460 461
30346 1 459 460 441
30347 1 459 460 442
30348 3 459 460 477
30349 2 459 460 479
30350 3 459 460 461
30351 1 441 460 442
30352 4 441 460 477
30353 3 441 460 479
30354 2 441 460 461
30355 3 442 460 477
30356 1 442 460 479
30357 1 442 460 461
30358 1 477 460 479
30359 2 477 460 461
30360 1 479 460 461
30361 1 342 461 379
30362 2 342 461 362
30363 1 342 461 363
30364 1 342 461 460
30365 2 342 461 442
30366 1 342 461 444
30367 3 342 461 479
30368 3 342 461 480
30369 4 342 461 462
30370 3 342 461 463
30371 3 342 461 464
30372 1 379 461 362
30373 2 379 461 363
30374 1 379 461 460
30375 3 379 461 442
30376 3 379 461 444
30377 2 379 461 479
30378 1 379 461 480
30379 3 379 461 462
30380 4 379 461 463
30381 3 379 461 464
30382 1 362 461 363
30383 3 362 461 460
30384 4 362 461 442
30385 3 362 461 444
30386 3 362 461 479
30387 1 362 461 480
30388 2 362 461 462
30389 3 362 461 463
30390 1 362 461 464
30391 3 363 461 460
30392 3 363 461 442
30393 1 363 461 444
30394 4 363 461 479
30395 3 363 461 480
30396 3 363 461 462
30397 2 363 461 463
30398 1 363 461 464
30399 1 460 461 442
30400 2 460 461 444
30401 1 460 461 479
30402 2 460 461 480
30403 3 460 461 462
30404 3 460 461 463
30405 4 460 461 464
30406 1 442 461 444
30407 1 442 461 479
30408 3 442 461 480
30409 2 442 461 462
30410 1 442 461 463
30411 3 442 461 464
30412 3 444 461 479
30413 4 444 461 480
30414 3 444 461 462
30415 1 444 461 463
30416 2 444 461 464
30417 1 479 461 480
30418 1 479 461 462
30419 2 479 461 463
30420 3 479 461 464
30421 1 480 461 462
30422 3 480 461 463
30423 2 480 461 464
30424 1 462 461 463
30425 1 462 461 464
30426 1 463 461 464
30427 1 479 462 480
30428 1 479 462 461
30429 2 479 462 463
30430 3 479 462 464
30431 2 479 462 499
30432 3 479 462 481
30433 4 479 462 483
30434 1 479 462 80
30435 1 479 462 61
30436 3 479 462 64
30437 3 479 462 81
30438 1 480 462 461
30439 3 480 462 463
30440 2 480 462 464
30441 1 480 462 499
30442 1 480 462 481
30443 3 480 462 483
30444 2 480 462 80
30445 3 480 462 61
30446 4 480 462 64
30447 3 480 462 81
30448 1 461 462 463
30449 1 461 462 464
30450 3 461 462 499
30451 2 461 462 481
30452 3 461 462 483
30453 3 461 462 80
30454 2 461 462 61
30455 3 461 462 64
30456 4 461 462 81
30457 1 463 462 464
30458 4 463 462 499
30459 3 463 462 481
30460 2 463 462 483
30461 3 463 462 80
30462 1 463 462 61
30463 1 463 462 64
30464 3 463 462 81
30465 3 464 462 499
30466 1 464 462 481
30467 1 464 462 483
30468 4 464 462 80
30469 3 464 462 61
30470 2 464 462 64
30471 3 464 462 81
30472 1 499 462 481
30473 2 499 462 483
30474 1 499 462 80
30475 3 499 462 61
30476 3 499 462 64
30477 1 499 462 81
30478 1 481 462 483
30479 3 481 462 80
30480 4 481 462 61
30481 3 481 462 64
30482 2 481 462 81
30483 3 483 462 80
30484 3 483 462 61
30485 1 483 462 64
30486 1 483 462 81
30487 1 80 462 61
30488 2 80 462 64
30489 1 80 462 81
30490 1 61 462 64
30491 2 61 462 81
30492 1 64 462 81
30493 1 442 463 444
30494 2 442 463 446
30495 1 442 463 461
30496 2 442 463 462
30497 3 442 463 464
30498 3 442 463 465
30499 4 442 463 466
30500 1 442 463 44
30501 1 442 463 61
30502 3 442 463 64
30503 3 442 463 65
30504 1 444 463 446
30505 1 444 463 461
30506 3 444 463 462
30507 2 444 463 464
30508 1 444 463 465
30509 3 444 463 466
30510 2 444 463 44
30511 3 444 463 61
30512 4 444 463 64
30513 3 444 463 65
30514 3 446 463 461
30515 4 446 463 462
30516 3 446 463 464
30517 1 446 463 465
30518 2 446 463 466
30519 1 446 463 44
30520 3 446 463 61
30521 3 446 463 64
30522 1 446 463 65
30523 1 461 463 462
30524 1 461 463 464
30525 2 461 463 465
30526 3 461 463 466
30527 3 461 463 44
30528 2 461 463 61
30529 3 461 463 64
30530 4 461 463 65
30531 1 462 463 464
30532 3 462 463 465
30533 2 462 463 466
30534 3 462 463 44
30535 1 462 463 61
30536 1 462 463 64
30537 3 462 463 65
30538 1 464 463 465
30539 1 464 463 466
30540 4 464 463 44
30541 3 464 463 61
30542 2 464 463 64
30543 3 464 463 65
30544 1 465 463 466
30545 3 465 463 44
30546 4 465 463 61
30547 3 465 463 64
30548 2 465 463 65
30549 3 466 463 44
30550 3 466 463 61
30551 1 466 463 64
30552 1 466 463 65
30553 1 44 463 61
30554 2 44 463 64
30555 1 44 463 65
30556 1 61 463 64
30557 2 61 463 65
30558 1 64 463 65
30559 1 362 464 363
30560 2 362 464 366
30561 1 362 464 383
30562 1 362 464 461
30563 2 362 464 462
30564 3 362 464 463
30565 3 362 464 465
30566 4 362 464 466
30567 1 362 464 481
30568 3 362 464 483
30569 3 362 464 485
30570 1 363 464 366
30571 2 363 464 383
30572 1 363 464 461
30573 3 363 464 462
30574 2 363 464 463
30575 1 363 464 465
30576 3 363 464 466
30577 3 363 464 481
30578 4 363 464 483
30579 3 363 464 485
30580 1 366 464 383
30581 3 366 464 461
30582 4 366 464 462
30583 3 366 464 463
30584 1 366 464 465
30585 2 366 464 466
30586 3 366 464 481
30587 3 366 464 483
30588 1 366 464 485
30589 3 383 464 461
30590 3 383 464 462
30591 4 383 464 463
30592 3 383 464 465
30593 3 383 464 466
30594 1 383 464 481
30595 2 383 464 483
30596 1 383 464 485
30597 1 461 464 462
30598 1 461 464 463
30599 2 461 464 465
30600 3 461 464 466
30601 2 461 464 481
30602 3 461 464 483
30603 4 461 464 485
30604 1 462 464 463
30605 3 462 464 465
30606 2 462 464 466
30607 1 462 464 481
30608 1 462 464 483
30609 3 462 464 485
30610 1 463 464 465
30611 1 463 464 466
30612 3 463 464 481
30613 2 463 464 483
30614 3 463 464 485
30615 1 465 464 466
30616 4 465 464 481
30617 3 465 464 483
30618 2 465 464 485
30619 3 466 464 481
30620 1 466 464 483
30621 1 466 464 485
30622 1 481 464 483
30623 2 481 464 485
30624 1 483 464 485
30625 1 346 465 363
30626 2 346 465 366
30627 1 346 465 367
30628 1 346 465 444
30629 2 346 465 446
30630 1 346 465 448
30631 3 346 465 463
30632 3 346 465 464
30633 4 346 465 466
30634 3 346 465 467
30635 3 346 465 468
30636 1 363 465 366
30637 2 363 465 367
30638 1 363 465 444
30639 3 363 465 446
30640 3 363 465 448
30641 2 363 465 463
30642 1 363 465 464
30643 3 363 465 466
30644 4 363 465 467
30645 3 363 465 468
30646 1 366 465 367
30647 3 366 465 444
30648 4 366 465 446
30649 3 366 465 448
30650 3 366 465 463
30651 1 366 465 464
30652 2 366 465 466
30653 3 366 465 467
30654 1 366 465 468
30655 3 367 465 444
30656 3 367 465 446
30657 1 367 465 448
30658 4 367 465 463
30659 3 367 465 464
30660 3 367 465 466
30661 2 367 465 467
30662 1 367 465 468
30663 1 444 465 446
30664 2 444 465 448
30665 1 444 465 463
30666 2 444 465 464
30667 3 444 465 466
30668 3 444 465 467
30669 4 444 465 468
30670 1 446 465 448
30671 1 446 465 463
30672 3 446 465 464
30673 2 446 465 466
30674 1 446 465 467
30675 3 446 465 468
30676 3 448 465 463
30677 4 448 465 464
30678 3 448 465 466
30679 1 448 465 467
30680 2 448 465 468
30681 1 463 465 464
30682 1 463 465 466
30683 2 463 465 467
30684 3 463 465 468
30685 1 464 465 466
30686 3 464 465 467
30687 2 464 465 468
30688 1 466 465 467
30689 1 466 465 468
30690 1 467 465 468
30691 1 463 466 464
30692 1 463 466 465
30693 2 463 466 467
30694 3 463 466 468
30695 2 463 466 483
30696 3 463 466 485
30697 4 463 466 487
30698 1 463 466 64
30699 1 463 466 65
30700 3 463 466 68
30701 3 463 466 85
30702 1 464 466 465
30703 3 464 466 467
30704 2 464 466 468
30705 1 464 466 483
30706 1 464 466 485
30707 3 464 466 487
30708 2 464 466 64
30709 3 464 466 65
30710 4 464 466 68
30711 3 464 466 85
30712 1 465 466 467
30713 1 465 466 468
30714 3 465 466 483
30715 2 465 466 485
30716 3 465 466 487
30717 3 465 466 64
30718 2 465 466 65
30719 3 465 466 68
30720 4 465 466 85
30721 1 467 466 468
30722 4 467 466 483
30723 3 467 466 485
30724 2 467 466 487
30725 3 467 466 64
30726 1 467 466 65
30727 1 467 466 68
30728 3 467 466 85
30729 3 468 466 483
30730 1 468 466 485
30731 1 468 466 487
30732 4 468 466 64
30733 3 468 466 65
30734 2 468 466 68
30735 3 468 466 85
30736 1 483 466 485
30737 2 483 466 487
30738 1 483 466 64
30739 3 483 466 65
30740 3 483 466 68
30741 1 483 466 85
30742 1 485 466 487
30743 3 485 466 64
30744 4 485 466 65
30745 3 485 466 68
30746 2 485 466 85
30747 3 487 466 64
30748 3 487 466 65
30749 1 487 466 68
30750 1 487 466 85
30751 1 64 466 65
30752 2 64 466 68
30753 1 64 466 85
30754 1 65 466 68
30755 2 65 466 85
30756 1 68 466 85
30757 1 446 467 448
30758 2 446 467 450
30759 1 446 467 465
30760 2 446 467 466
30761 3 446 467 468
30762 3 446 467 469
30763 4 446 467 470
30764 1 446 467 48
30765 1 446 467 65
30766 3 446 467 68
30767 3 446 467 69
30768 1 448 467 450
30769 1 448 467 465
30770 3 448 467 466
30771 2 448 467 468
30772 1 448 467 469
30773 3 448 467 470
30774 2 448 467 48
30775 3 448 467 65
30776 4 448 467 68
30777 3 448 467 69
30778 3 450 467 465
30779 4 450 467 466
30780 3 450 467 468
30781 1 450 467 469
30782 2 450 467 470
30783 1 450 467 48
30784 3 450 467 65
30785 3 450 467 68
30786 1 450 467 69
30787 1 465 467 466
30788 1 465 467 468
30789 2 465 467 469
30790 3 465 467 470
30791 3 465 467 48
30792 2 465 467 65
30793 3 465 467 68
30794 4 465 467 69
30795 1 466 467 468
30796 3 466 467 469
30797 2 466 467 470
30798 3 466 467 48
30799 1 466 467 65
30800 1 466 467 68
30801 3 466 467 69
30802 1 468 467 469
30803 1 468 467 470
30804 4 468 467 48
30805 3 468 467 65
30806 2 468 467 68
30807 3 468 467 69
30808 1 469 467 470
30809 3 469 467 48
30810 4 469 467 65
30811 3 469 467 68
30812 2 469 467 69
30813 3 470 467 48
30814 3 470 467 65
30815 1 470 467 68
30816 1 470 467 69
30817 1 48 467 65
30818 2 48 467 68
30819 1 48 467 69
30820 1 65 467 68
30821 2 65 467 69
30822 1 68 467 69
30823 1 366 468 367
30824 2 366 468 370
30825 1 366 468 387
30826 1 366 468 465
30827 2 366 468 466
30828 3 366 468 467
30829 3 366 468 469
30830 4 366 468 470
30831 1 366 468 485
30832 3 366 468 487
30833 3 366 468 489
30834 1 367 468 370
30835 2 367 468 387
30836 1 367 468 465
30837 3 367 468 466
30838 2 367 468 467
30839 1 367 468 469
30840 3 367 468 470
30841 3 367 468 485
30842 4 367 468 487
30843 3 367 468 489
30844 1 370 468 387
30845 3 370 468 465
30846 4 370 468 466
30847 3 370 468 467
30848 1 370 468 469
30849 2 370 468 470
30850 3 370 468 485
30851 3 370 468 487
30852 1 370 468 489
30853 3 387 468 465
30854 3 387 468 466
30855 4 387 468 467
30856 3 387 468 469
30857 3 387 468 470
30858 1 387 468 485
30859 2 387 468 487
30860 1 387 468 489
30861 1 465 468 466
30862 1 465 468 467
30863 2 465 468 469
30864 3 465 468 470
30865 2 465 468 485
30866 3 465 468 487
30867 4 465 468 489
30868 1 466 468 467
30869 3 466 468 469
30870 2 466 468 470
30871 1 466 468 485
30872 1 466 468 487
30873 3 466 468 489
30874 1 467 468 469
30875 1 467 468 470
30876 3 467 468 485
30877 2 467 468 487
30878 3 467 468 489
30879 1 469 468 470
30880 4 469 468 485
30881 3 469 468 487
30882 2 469 468 489
30883 3 470 468 485
30884 1 470 468 487
30885 1 470 468 489
30886 1 485 468 487
30887 2 485 468 489
30888 1 487 468 489
30889 1 350 469 367
30890 2 350 469 370
30891 1 350 469 371
30892 1 350 469 448
30893 2 350 469 450
30894 1 350 469 452
30895 3 350 469 467
30896 3 350 469 468
30897 4 350 469 470
30898 3 350 469 471
30899 3 350 469 472
30900 1 367 469 370
30901 2 367 469 371
30902 1 367 469 448
30903 3 367 469 450
30904 3 367 469 452
30905 2 367 469 467
30906 1 367 469 468
30907 3 367 469 470
30908 4 367 469 471
30909 3 367 469 472
30910 1 370 469 371
30911 3 370 469 448
30912 4 370 469 450
30913 3 370 469 452
30914 3 370 469 467
30915 1 370 469 468
30916 2 370 469 470
30917 3 370 469 471
30918 1 370 469 472
30919 3 371 469 448
30920 3 371 469 450
30921 1 371 469 452
30922 4 371 469 467
30923 3 371 469 468
30924 3 371 469 470
30925 2 371 469 471
30926 1 371 469 472
30927 1 448 469 450
30928 2 448 469 452
30929 1 448 469 467
30930 2 448 469 468
30931 3 448 469 470
30932 3 448 469 471
30933 4 448 469 472
30934 1 450 469 452
30935 1 450 469 467
30936 3 450 469 468
30937 2 450 469 470
30938 1 450 469 471
30939 3 450 469 472
30940 3 452 469 467
30941 4 452 469 468
30942 3 452 469 470
30943 1 452 469 471
30944 2 452 469 472
30945 1 467 469 468
30946 1 467 469 470
30947 2 467 469 471
30948 3 467 469 472
30949 1 468 469 470
30950 3 468 469 471
30951 2 468 469 472
30952 1 470 469 471
30953 1 470 469 472
30954 1 471 469 472
30955 1 467 470 468
30956 1 467 470 469
30957 2 467 470 471
30958 3 467 470 472
30959 2 467 470 487
30960 3 467 470 489
30961 4 467 470 491
30962 1 467 470 68
30963 1 467 470 69
30964 3 467 470 72
30965 3 467 470 89
30966 1 468 470 469
30967 3 468 470 471
30968 2 468 470 472
30969 1 468 470 487
30970 1 468 470 489
30971 3 468 470 491
30972 2 468 470 68
30973 3 468 470 69
30974 4 468 470 72
30975 3 468 470 89
30976 1 469 470 471
30977 1 469 470 472
30978 3 469 470 487
30979 2 469 470 489
30980 3 469 470 491
30981 3 469 470 68
30982 2 469 470 69
30983 3 469 470 72
30984 4 469 470 89
30985 1 471 470 472
30986 4 471 470 487
30987 3 471 470 489
30988 2 471 470 491
30989 3 471 470 68
30990 1 471 470 69
30991 1 471 470 72
30992 3 471 470 89
30993 3 472 470 487
30994 1 472 470 489
30995 1 472 470 491
30996 4 472 470 68
30997 3 472 470 69
30998 2 472 470 72
30999 3 472 470 89
31000 1 487 470 489
31001 2 487 470 491
31002 1 487 470 68
31003 3 487 470 69
31004 3 487 470 72
31005 1 487 470 89
31006 1 489 470 491
31007 3 489 470 68
31008 4 489 470 69
31009 3 489 470 72
31010 2 489 470 89
31011 3 491 470 68
31012 3 491 470 69
31013 1 491 470 72
31014 1 491 470 89
31015 1 68 470 69
31016 2 68 470 72
31017 1 68 470 89
31018 1 69 470 72
31019 2 69 470 89
31020 1 72 470 89
31021 1 450 471 452
31022 2 450 471 454
31023 1 450 471 469
31024 2 450 471 470
31025 3 450 471 472
31026 3 450 471 473
31027 4 450 471 474
31028 1 450 471 52
31029 1 450 471 69
31030 3 450 471 72
31031 3 450 471 73
31032 1 452 471 454
31033 1 452 471 469
31034 3 452 471 470
31035 2 452 471 472
31036 1 452 471 473
31037 3 452 471 474
31038 2 452 471 52
31039 3 452 471 69
31040 4 452 471 72
31041 3 452 471 73
31042 3 454 471 469
31043 4 454 471 470
31044 3 454 471 472
31045 1 454 471 473
31046 2 454 471 474
31047 1 454 471 52
31048 3 454 471 69
31049 3 454 471 72
31050 1 454 471 73
31051 1 469 471 470
31052 1 469 471 472
31053 2 469 471 473
31054 3 469 471 474
31055 3 469 471 52
31056 2 469 471 69
31057 3 469 471 72
31058 4 469 471 73
31059 1 470 471 472
31060 3 470 471 473
31061 2 470 471 474
31062 3 470 471 52
31063 1 470 471 69
31064 1 470 471 72
31065 3 470 471 73
31066 1 472 471 473
31067 1 472 471 474
31068 4 472 471 52
31069 3 472 471 69
31070 2 472 471 72
31071 3 472 471 73
31072 1 473 471 474
31073 3 473 471 52
31074 4 473 471 69
31075 3 473 471 72
31076 2 473 471 73
31077 3 474 471 52
31078 3 474 471 69
31079 1 474 471 72
31080 1 474 471 73
31081 1 52 471 69
31082 2 52 471 72
31083 1 52 471 73
31084 1 69 471 72
31085 2 69 471 73
31086 1 72 471 73
31087 1 370 472 371
31088 2 370 472 374
31089 1 370 472 391
31090 1 370 472 469
31091 2 370 472 470
31092 3 370 472 471
31093 3 370 472 473
31094 4 370 472 474
31095 1 370 472 489
31096 3 370 472 491
31097 3 370 472 493
31098 1 371 472 374
31099 2 371 472 391
31100 1 371 472 469
31101 3 371 472 470
31102 2 371 472 471
31103 1 371 472 473
31104 3 371 472 474
31105 3 371 472 489
31106 4 371 472 491
31107 3 371 472 493
31108 1 374 472 391
31109 3 374 472 469
31110 4 374 472 470
31111 3 374 472 471
31112 1 374 472 473
31113 2 374 472 474
31114 3 374 472 489
31115 3 374 472 491
31116 1 374 472 493
31117 3 391 472 469
31118 3 391 472 470
31119 4 391 472 471
31120 3 391 472 473
31121 3 391 472 474
31122 1 391 472 489
31123 2 391 472 491
31124 1 391 472 493
31125 1 469 472 470
31126 1 469 472 471
31127 2 469 472 473
31128 3 469 472 474
31129 2 469 472 489
31130 3 469 472 491
31131 4 469 472 493
31132 1 470 472 471
31133 3 470 472 473
31134 2 470 472 474
31135 1 470 472 489
31136 1 470 472 491
31137 3 470 472 493
31138 1 471 472 473
31139 1 471 472 474
31140 3 471 472 489
31141 2 471 472 491
31142 3 471 472 493
31143 1 473 472 474
31144 4 473 472 489
31145 3 473 472 491
31146 2 473 472 493
31147 3 474 472 489
31148 1 474 472 491
31149 1 474 472 493
31150 1 489 472 491
31151 2 489 472 493
31152 1 491 472 493
31153 1 354 473 371
31154 2 354 473 374
31155 1 354 473 375
31156 1 354 473 452
31157 2 354 473 454
31158 1 354 473 456
31159 3 354 473 471
31160 3 354 473 472
31161 4 354 473 474
31162 3 354 473 475
31163 3 354 473 476
31164 1 371 473 374
31165 2 371 473 375
31166 1 371 473 452
31167 3 371 473 454
31168 3 371 473 456
31169 2 371 473 471
31170 1 371 473 472
31171 3 371 473 474
31172 4 371 473 475
31173 3 371 473 476
31174 1 374 473 375
31175 3 374 473 452
31176 4 374 473 454
31177 3 374 473 456
31178 3 374 473 471
31179 1 374 473 472
31180 2 374 473 474
31181 3 374 473 475
31182 1 374 473 476
31183 3 375 473 452
31184 3 375 473 454
31185 1 375 473 456
31186 4 375 473 471
31187 3 375 473 472
31188 3 375 473 474
31189 2 375 473 475
31190 1 375 473 476
31191 1 452 473 454
31192 2 452 473 456
31193 1 452 473 471
31194 2 452 473 472
31195 3 452 473 474
31196 3 452 473 475
31197 4 452 473 476
31198 1 454 473 456
31199 1 454 473 471
31200 3 454 473 472
31201 2 454 473 474
31202 1 454 473 475
31203 3 454 473 476
31204 3 456 473 471
31205 4 456 473 472
31206 3 456 473 474
31207 1 456 473 475
31208 2 456 473 476
31209 1 471 473 472
31210 1 471 473 474
31211 2 471 473 475
31212 3 471 473 476
31213 1 472 473 474
31214 3 472 473 475
31215 2 472 473 476
31216 1 474 473 475
31217 1 474 473 476
31218 1 475 473 476
31219 1 471 474 472
31220 1 471 474 473
31221 2 471 474 475
31222 3 471 474 476
31223 2 471 474 491
31224 3 471 474 493
31225 4 471 474 495
31226 1 471 474 72
31227 1 471 474 73
31228 3 471 474 76
31229 3 471 474 93
31230 1 472 474 473
31231 3 472 474 475
31232 2 472 474 476
31233 1 472 474 491
31234 1 472 474 493
31235 3 472 474 495
31236 2 472 474 72
31237 3 472 474 73
31238 4 472 474 76
31239 3 472 474 93
31240 1 473 474 475
31241 1 473 474 476
31242 3 473 474 491
31243 2 473 474 493
31244 3 473 474 495
31245 3 473 474 72
31246 2 473 474 73
31247 3 473 474 76
31248 4 473 474 93
31249 1 475 474 476
31250 4 475 474 491
31251 3 475 474 493
31252 2 475 474 495
31253 3 475 474 72
31254 1 475 474 73
31255 1 475 474 76
31256 3 475 474 93
31257 3 476 474 491
31258 1 476 474 493
31259 1 476 474 495
31260 4 476 474 72
31261 3 476 474 73
31262 2 476 474 76
31263 3 476 474 93
31264 1 491 474 493
31265 2 491 474 495
31266 1 491 474 72
31267 3 491 474 73
31268 3 491 474 76
31269 1 491 474 93
31270 1 493 474 495
31271 3 493 474 72
31272 4 493 474 73
31273 3 493 474 76
31274 2 493 474 93
31275 3 495 474 72
31276 3 495 474 73
31277 1 495 474 76
31278 1 495 474 93
31279 1 72 474 73
31280 2 72 474 76
31281 1 72 474 93
31282 1 73 474 76
31283 2 73 474 93
31284 1 76 474 93
31285 1 454 475 456
31286 2 454 475 458
31287 1 454 475 473
31288 2 454 475 474
31289 3 454 475 476
31290 3 454 475 477
31291 4 454 475 478
31292 1 454 475 56
31293 1 454 475 73
31294 3 454 475 76
31295 3 454 475 77
31296 1 456 475 458
31297 1 456 475 473
31298 3 456 475 474
31299 2 456 475 476
31300 1 456 475 477
31301 3 456 475 478
31302 2 456 475 56
31303 3 456 475 73
31304 4 456 475 76
31305 3 456 475 77
31306 3 458 475 473
31307 4 458 475 474
31308 3 458 475 476
31309 1 458 475 477
31310 2 458 475 478
31311 1 458 475 56
31312 3 458 475 73
31313 3 458 475 76
31314 1 458 475 77
31315 1 473 475 474
31316 1 473 475 476
31317 2 473 475 477
31318 3 473 475 478
31319 3 473 475 56
31320 2 473 475 73
31321 3 473 475 76
31322 4 473 475 77
31323 1 474 475 476
31324 3 474 475 477
31325 2 474 475 478
31326 3 474 475 56
31327 1 474 475 73
31328 1 474 475 76
31329 3 474 475 77
31330 1 476 475 477
31331 1 476 475 478
31332 4 476 475 56
31333 3 476 475 73
31334 2 476 475 76
31335 3 476 475 77
31336 1 477 475 478
31337 3 477 475 56
31338 4 477 475 73
31339 3 477 475 76
31340 2 477 475 77
31341 3 478 475 56
31342 3 478 475 73
31343 1 478 475 76
31344 1 478 475 77
31345 1 56 475 73
31346 2 56 475 76
31347 1 56 475 77
31348 1 73 475 76
31349 2 73 475 77
31350 1 76 475 77
31351 1 374 476 375
31352 2 374 476 378
31353 1 374 476 395
31354 1 374 476 473
31355 2 374 476 474
31356 3 374 476 475
31357 3 374 476 477
31358 4 374 476 478
31359 1 374 476 493
31360 3 374 476 495
31361 3 374 476 497
31362 1 375 476 378
31363 2 375 476 395
31364 1 375 476 473
31365 3 375 476 474
31366 2 375 476 475
31367 1 375 476 477
31368 3 375 476 478
31369 3 375 476 493
31370 4 375 476 495
31371 3 375 476 497
31372 1 378 476 395
31373 3 378 476 473
31374 4 378 476 474
31375 3 378 476 475
31376 1 378 476 477
31377 2 378 476 478
31378 3 378 476 493
31379 3 378 476 495
31380 1 378 476 497
31381 3 395 476 473
31382 3 395 476 474
31383 4 395 476 475
31384 3 395 476 477
31385 3 395 476 478
31386 1 395 476 493
31387 2 395 476 495
31388 1 395 476 497
31389 1 473 476 474
31390 1 473 476 475
31391 2 473 476 477
31392 3 473 476 478
31393 2 473 476 493
31394 3 473 476 495
31395 4 473 476 497
31396 1 474 476 475
31397 3 474 476 477
31398 2 474 476 478
31399 1 474 476 493
31400 1 474 476 495
31401 3 474 476 497
31402 1 475 476 477
31403 1 475 476 478
31404 3 475 476 493
31405 2 475 476 495
31406 3 475 476 497
31407 1 477 476 478
31408 4 477 476 493
31409 3 477 476 495
31410 2 477 476 497
31411 3 478 476 493
31412 1 478 476 495
31413 1 478 476 497
31414 1 493 476 495
31415 2 493 476 497
31416 1 495 476 497
31417 1 358 477 375
31418 2 358 477 378
31419 1 358 477 379
31420 1 358 477 456
31421 2 358 477 458
31422 1 358 477 460
31423 3 358 477 475
31424 3 358 477 476
31425 4 358 477 478
31426 3 358 477 479
31427 3 358 477 480
31428 1 375 477 378
31429 2 375 477 379
31430 1 375 477 456
31431 3 375 477 458
31432 3 375 477 460
31433 2 375 477 475
31434 1 375 477 476
31435 3 375 477 478
31436 4 375 477 479
31437 3 375 477 480
31438 1 378 477 379
31439 3 378 477 456
31440 4 378 477 458
31441 3 378 477 460
31442 3 378 477 475
31443 1 378 477 476
31444 2 378 477 478
31445 3 378 477 479
31446 1 378 477 480
31447 3 379 477 456
31448 3 379 477 458
31449 1 379 477 460
31450 4 379 477 475
31451 3 379 477 476
31452 3 379 477 478
31453 2 379 477 479
31454 1 379 477 480
31455 1 456 477 458
31456 2 456 477 460
31457 1 456 477 475
31458 2 456 477 476
31459 3 456 477 478
31460 3 456 477 479
31461 4 456 477 480
31462 1 458 477 460
31463 1 458 477 475
31464 3 458 477 476
31465 2 458 477 478
31466 1 458 477 479
31467 3 458 477 480
31468 3 460 477 475
31469 4 460 477 476
31470 3 460 477 478
31471 1 460 477 479
31472 2 460 477 480
31473 1 475 477 476
31474 1 475 477 478
31475 2 475 477 479
31476 3 475 477 480
31477 1 476 477 478
31478 3 476 477 479
31479 2 476 477 480
31480 1 478 477 479
31481 1 478 477 480
31482 1 479 477 480
31483 1 475 478 476
31484 1 475 478 477
31485 2 475 478 479
31486 3 475 478 480
31487 2 475 478 495
31488 3 475 478 497
31489 4 475 478 499
31490 1 475 478 76
31491 1 475 478 77
31492 3 475 478 80
31493 3 475 478 97
31494 1 476 478 477
31495 3 476 478 479
31496 2 476 478 480
31497 1 476 478 495
31498 1 476 478 497
31499 3 476 478 499
31500 2 476 478 76
31501 3 476 478 77
31502 4 476 478 80
31503 3 476 478 97
31504 1 477 478 479
31505 1 477 478 480
31506 3 477 478 495
31507 2 477 478 497
31508 3 477 478 499
31509 3 477 478 76
31510 2 477 478 77
31511 3 477 478 80
31512 4 477 478 97
31513 1 479 478 480
31514 4 479 478 495
31515 3 479 478 497
31516 2 479 478 499
31517 3 479 478 76
31518 1 479 478 77
31519 1 479 478 80
31520 3 479 478 97
31521 3 480 478 495
31522 1 480 478 497
31523 1 480 478 499
31524 4 480 478 76
31525 3 480 478 77
31526 2 480 478 80
31527 3 480 478 97
31528 1 495 478 497
31529 2 495 478 499
31530 1 495 478 76
31531 3 495 478 77
31532 3 495 478 80
31533 1 495 478 97
31534 1 497 478 499
31535 3 497 478 76
31536 4 497 478 77
31537 3 497 478 80
31538 2 497 478 97
31539 3 499 478 76
31540 3 499 478 77
31541 1 499 478 80
31542 1 499 478 97
31543 1 76 478 77
31544 2 76 478 80
31545 1 76 478 97
31546 1 77 478 80
31547 2 77 478 97
31548 1 80 478 97
31549 1 458 479 460
31550 2 458 479 442
31551 1 458 479 477
31552 2 458 479 478
31553 3 458 479 480
31554 3 458 479 461
31555 4 458 479 462
31556 1 458 479 60
31557 1 458 479 77
31558 3 458 479 80
31559 3 458 479 61
31560 1 460 479 442
31561 1 460 479 477
31562 3 460 479 478
31563 2 460 479 480
31564 1 460 479 461
31565 3 460 479 462
31566 2 460 479 60
31567 3 460 479 77
31568 4 460 479 80
31569 3 460 479 61
31570 3 442 479 477
31571 4 442 479 478
31572 3 442 479 480
31573 1 442 479 461
31574 2 442 479 462
31575 1 442 479 60
31576 3 442 479 77
31577 3 442 479 80
31578 1 442 479 61
31579 1 477 479 478
31580 1 477 479 480
31581 2 477 479 461
31582 3 477 479 462
31583 3 477 479 60
31584 2 477 479 77
31585 3 477 479 80
31586 4 477 479 61
31587 1 478 479 480
31588 3 478 479 461
31589 2 478 479 462
31590 3 478 479 60
31591 1 478 479 77
31592 1 478 479 80
31593 3 478 479 61
31594 1 480 479 461
31595 1 480 479 462
31596 4 480 479 60
31597 3 480 479 77
31598 2 480 479 80
31599 3 480 479 61
31600 1 461 479 462
31601 3 461 479 60
31602 4 461 479 77
31603 3 461 479 80
31604 2 461 479 61
31605 3 462 479 60
31606 3 462 479 77
31607 1 462 479 80
31608 1 462 479 61
31609 1 60 479 77
31610 2 60 479 80
31611 1 60 479 61
31612 1 77 479 80
31613 2 77 479 61
31614 1 80 479 61
31615 1 378 480 379
31616 2 378 480 362
31617 1 378 480 399
31618 1 378 480 477
31619 2 378 480 478
31620 3 378 480 479
31621 3 378 480 461
31622 4 378 480 462
31623 1 378 480 497
31624 3 378 480 499
31625 3 378 480 481
31626 1 379 480 362
31627 2 379 480 399
31628 1 379 480 477
31629 3 379 480 478
31630 2 379 480 479
31631 1 379 480 461
31632 3 379 480 462
31633 3 379 480 497
31634 4 379 480 499
31635 3 379 480 481
31636 1 362 480 399
31637 3 362 480 477
31638 4 362 480 478
31639 3 362 480 479
31640 1 362 480 461
31641 2 362 480 462
31642 3 362 480 497
31643 3 362 480 499
31644 1 362 480 481
31645 3 399 480 477
31646 3 399 480 478
31647 4 399 480 479
31648 3 399 480 461
31649 3 399 480 462
31650 1 399 480 497
31651 2 399 480 499
31652 1 399 480 481
31653 1 477 480 478
31654 1 477 480 479
31655 2 477 480 461
31656 3 477 480 462
31657 2 477 480 497
31658 3 477 480 499
31659 4 477 480 481
31660 1 478 480 479
31661 3 478 480 461
31662 2 478 480 462
31663 1 478 480 497
31664 1 478 480 499
31665 3 478 480 481
31666 1 479 480 461
31667 1 479 480 462
31668 3 479 480 497
31669 2 479 480 499
31670 3 479 480 481
31671 1 461 480 462
31672 4 461 480 497
31673 3 461 480 499
31674 2 461 480 481
31675 3 462 480 497
31676 1 462 480 499
31677 1 462 480 481
31678 1 497 480 499
31679 2 497 480 481
31680 1 499 480 481
31681 1 362 481 399
31682 2 362 481 382
31683 1 362 481 383
31684 1 362 481 480
31685 2 362 481 462
31686 1 362 481 464
31687 3 362 481 499
31688 3 362 481 500
31689 4 362 481 482
31690 3 362 481 483
31691 3 362 481 484
31692 1 399 481 382
31693 2 399 481 383
31694 1 399 481 480
31695 3 399 481 462
31696 3 399 481 464
31697 2 399 481 499
31698 1 399 481 500
31699 3 399 481 482
31700 4 399 481 483
31701 3 399 481 484
31702 1 382 481 383
31703 3 382 481 480
31704 4 382 481 462
31705 3 382 481 464
31706 3 382 481 499
31707 1 382 481 500
31708 2 382 481 482
31709 3 382 481 483
31710 1 382 481 484
31711 3 383 481 480
31712 3 383 481 462
31713 1 383 481 464
31714 4 383 481 499
31715 3 383 481 500
31716 3 383 481 482
31717 2 383 481 483
31718 1 383 481 484
31719 1 480 481 462
31720 2 480 481 464
31721 1 480 481 499
31722 2 480 481 500
31723 3 480 481 482
31724 3 480 481 483
31725 4 480 481 484
31726 1 462 481 464
31727 1 462 481 499
31728 3 462 481 500
31729 2 462 481 482
31730 1 462 481 483
31731 3 462 481 484
31732 3 464 481 499
31733 4 464 481 500
31734 3 464 481 482
31735 1 464 481 483
31736 2 464 481 484
31737 1 499 481 500
31738 1 499 481 482
31739 2 499 481 483
31740 3 499 481 484
31741 1 500 481 482
31742 3 500 481 483
31743 2 500 481 484
31744 1 482 481 483
31745 1 482 481 484
31746 1 483 481 484
31747 1 499 482 500
31748 1 499 482 481
31749 2 499 482 483
31750 3 499 482 484
31751 2 499 482 419
31752 3 499 482 401
31753 4 499 482 403
31754 1 499 482 100
31755 1 499 482 81
31756 3 499 482 84
31757 3 499 482 1
31758 1 500 482 481
31759 3 500 482 483
31760 2 500 482 484
31761 1 500 482 419
31762 1 500 482 401
31763 3 500 482 403
31764 2 500 482 100
31765 3 500 482 81
31766 4 500 482 84
31767 3 500 482 1
31768 1 481 482 483
31769 1 481 482 484
31770 3 481 482 419
31771 2 481 482 401
31772 3 481 482 403
31773 3 481 482 100
31774 2 481 482 81
31775 3 481 482 84
31776 4 481 482 1
31777 1 483 482 484
31778 4 483 482 419
31779 3 483 482 401
31780 2 483 482 403
31781 3 483 482 100
31782 1 483 482 81
31783 1 483 482 84
31784 3 483 482 1
31785 3 484 482 419
31786 1 484 482 401
31787 1 484 482 403
31788 4 484 482 100
31789 3 484 482 81
31790 2 484 482 84
31791 3 484 482 1
31792 1 419 482 401
31793 2 419 482 403
31794 1 419 482 100
31795 3 419 482 81
31796 3 419 482 84
31797 1 419 482 1
31798 1 401 482 403
31799 3 401 482 100
31800 4 401 482 81
31801 3 401 482 84
31802 2 401 482 1
31803 3 403 482 100
31804 3 403 482 81
31805 1 403 482 84
31806 1 403 482 1
31807 1 100 482 81
31808 2 100 482 84
31809 1 100 482 1
31810 1 81 482 84
31811 2 81 482 1
31812 1 84 482 1
31813 1 462 483 464
31814 2 462 483 466
31815 1 462 483 481
31816 2 462 483 482
31817 3 462 483 484
31818 3 462 483 485
31819 4 462 483 486
31820 1 462 483 64
31821 1 462 483 81
31822 3 462 483 84
31823 3 462 483 85
31824 1 464 483 466
31825 1 464 483 481
31826 3 464 483 482
31827 2 464 483 484
31828 1 464 483 485
31829 3 464 483 486
31830 2 464 483 64
31831 3 464 483 81
31832 4 464 483 84
31833 3 464 483 85
31834 3 466 483 481
31835 4 466 483 482
31836 3 466 483 484
31837 1 466 483 485
31838 2 466 483 486
31839 1 466 483 64
31840 3 466 483 81
31841 3 466 483 84
31842 1 466 483 85
31843 1 481 483 482
31844 1 481 483 484
31845 2 481 483 485
31846 3 481 483 486
31847 3 481 483 64
31848 2 481 483 81
31849 3 481 483 84
31850 4 481 483 85
31851 1 482 483 484
31852 3 482 483 485
31853 2 482 483 486
31854 3 482 483 64
31855 1 482 483 81
31856 1 482 483 84
31857 3 482 483 85
31858 1 484 483 485
31859 1 484 483 486
31860 4 484 483 64
31861 3 484 483 81
31862 2 484 483 84
31863 3 484 483 85
31864 1 485 483 486
31865 3 485 483 64
31866 4 485 483 81
31867 3 485 483 84
31868 2 485 483 85
31869 3 486 483 64
31870 3 486 483 81
31871 1 486 483 84
31872 1 486 483 85
31873 1 64 483 81
31874 2 64 483 84
31875 1 64 483 85
31876 1 81 483 84
31877 2 81 483 85
31878 1 84 483 85
31879 1 382 484 383
31880 2 382 484 386
31881 1 382 484 303
31882 1 382 484 481
31883 2 382 484 482
31884 3 382 484 483
31885 3 382 484 485
31886 4 382 484 486
31887 1 382 484 401
31888 3 382 484 403
31889 3 382 484 405
31890 1 383 484 386
31891 2 383 484 303
31892 1 383 484 481
31893 3 383 484 482
31894 2 383 484 483
31895 1 383 484 485
31896 3 383 484 486
31897 3 383 484 401
31898 4 383 484 403
31899 3 383 484 405
31900 1 386 484 303
31901 3 386 484 481
31902 4 386 484 482
31903 3 386 484 483
31904 1 386 484 485
31905 2 386 484 486
31906 3 386 484 401
31907 3 386 484 403
31908 1 386 484 405
31909 3 303 484 481
31910 3 303 484 482
31911 4 303 484 483
31912 3 303 484 485
31913 3 303 484 486
31914 1 303 484 401
31915 2 303 484 403
31916 1 303 484 405
31917 1 481 484 482
31918 1 481 484 483
31919 2 481 484 485
31920 3 481 484 486
31921 2 481 484 401
31922 3 481 484 403
31923 4 481 484 405
31924 1 482 484 483
31925 3 482 484 485
31926 2 482 484 486
31927 1 482 484 401
31928 1 482 484 403
31929 3 482 484 405
31930 1 483 484 485
31931 1 483 484 486
31932 3 483 484 401
31933 2 483 484 403
31934 3 483 484 405
31935 1 485 484 486
31936 4 485 484 401
31937 3 485 484 403
31938 2 485 484 405
31939 3 486 484 401
31940 1 486 484 403
31941 1 486 484 405
31942 1 401 484 403
31943 2 401 484 405
31944 1 403 484 405
31945 1 366 485 383
31946 2 366 485 386
31947 1 366 485 387
31948 1 366 485 464
31949 2 366 485 466
31950 1 366 485 468
31951 3 366 485 483
31952 3 366 485 484
31953 4 366 485 486
31954 3 366 485 487
31955 3 366 485 488
31956 1 383 485 386
31957 2 383 485 387
31958 1 383 485 464
31959 3 383 485 466
31960 3 383 485 468
31961 2 383 485 483
31962 1 383 485 484
31963 3 383 485 486
31964 4 383 485 487
31965 3 383 485 488
31966 1 386 485 387
31967 3 386 485 464
31968 4 386 485 466
31969 3 386 485 468
31970 3 386 485 483
31971 1 386 485 484
31972 2 386 485 486
31973 3 386 485 487
31974 1 386 485 488
31975 3 387 485 464
31976 3 387 485 466
31977 1 387 485 468
31978 4 387 485 483
31979 3 387 485 484
31980 3 387 485 486
31981 2 387 485 487
31982 1 387 485 488
31983 1 464 485 466
31984 2 464 485 468
31985 1 464 485 483
31986 2 464 485 484
31987 3 464 485 486
31988 3 464 485 487
31989 4 464 485 488
31990 1 466 485 468
31991 1 466 485 483
31992 3 466 485 484
31993 2 466 485 486
31994 1 466 485 487
31995 3 466 485 488
31996 3 468 485 483
31997 4 468 485 484
31998 3 468 485 486
31999 1 468 485 487
32000 2 468 485 488
32001 1 483 485 484
32002 1 483 485 486
32003 2 483 485 487
32004 3 483 485 488
32005 1 484 485 486
32006 3 484 485 487
32007 2 484 485 488
32008 1 486 485 487
32009 1 486 485 488
32010 1 487 485 488
32011 1 483 486 484
32012 1 483 486 485
32013 2 483 486 487
32014 3 483 486 488
32015 2 483 486 403
32016 3 483 486 405
32017 4 483 486 407
32018 1 483 486 84
32019 1 483 486 85
32020 3 483 486 88
32021 3 483 486 5
32022 1 484 486 485
32023 3 484 486 487
32024 2 484 486 488
32025 1 484 486 403
32026 1 484 486 405
32027 3 484 486 407
32028 2 484 486 84
32029 3 484 486 85
32030 4 484 486 88
32031 3 484 486 5
32032 1 485 486 487
32033 1 485 486 488
32034 3 485 486 403
32035 2 485 486 405
32036 3 485 486 407
32037 3 485 486 84
32038 2 485 486 85
32039 3 485 486 88
32040 4 485 486 5
32041 1 487 486 488
32042 4 487 486 403
32043 3 487 486 405
32044 2 487 486 407
32045 3 487 486 84
32046 1 487 486 85
32047 1 487 486 88
32048 3 487 486 5
32049 3 488 486 403
32050 1 488 486 405
32051 1 488 486 407
32052 4 488 486 84
32053 3 488 486 85
32054 2 488 486 88
32055 3 488 486 5
32056 1 403 486 405
32057 2 403 486 407
32058 1 403 486 84
32059 3 403 486 85
32060 3 403 486 88
32061 1 403 486 5
32062 1 405 486 407
32063 3 405 486 84
32064 4 405 486 85
32065 3 405 486 88
32066 2 405 486 5
32067 3 407 486 84
32068 3 407 486 85
32069 1 407 486 88
32070 1 407 486 5
32071 1 84 486 85
32072 2 84 486 88
32073 1 84 486 5
32074 1 85 486 88
32075 2 85 486 5
32076 1 88 486 5
32077 1 466 487 468
32078 2 466 487 470
32079 1 466 487 485
32080 2 466 487 486
32081 3 466 487 488
32082 3 466 487 489
32083 4 466 487 490
32084 1 466 487 68
32085 1 466 487 85
32086 3 466 487 88
32087 3 466 487 89
32088 1 468 487 470
32089 1 468 487 485
32090 3 468 487 486
32091 2 468 487 488
32092 1 468 487 489
32093 3 468 487 490
32094 2 468 487 68
32095 3 468 487 85
32096 4 468 487 88
32097 3 468 487 89
32098 3 470 487 485
32099 4 470 487 486
32100 3 470 487 488
32101 1 470 487 489
32102 2 470 487 490
32103 1 470 487 68
32104 3 470 487 85
32105 3 470 487 88
32106 1 470 487 89
32107 1 485 487 486
32108 1 485 487 488
32109 2 485 487 489
32110 3 485 487 490
32111 3 485 487 68
32112 2 485 487 85
32113 3 485 487 88
32114 4 485 487 89
32115 1 486 487 488
32116 3 486 487 489
32117 2 486 487 490
32118 3 486 487 68
32119 1 486 487 85
32120 1 486 487 88
32121 3 486 487 89
32122 1 488 487 489
32123 1 488 487 490
32124 4 488 487 68
32125 3 488 487 85
32126 2 488 487 88
32127 3 488 487 89
32128 1 489 487 490
32129 3 489 487 68
32130 4 489 487 85
32131 3 489 487 88
32132 2 489 487 89
32133 3 490 487 68
32134 3 490 487 85
32135 1 490 487 88
32136 1 490 487 89
32137 1 68 487 85
32138 2 68 487 88
32139 1 68 487 89
32140 1 85 487 88
32141 2 85 487 89
32142 1 88 487 89
32143 1 386 488 387
32144 2 386 488 390
32145 1 386 488 307
32146 1 386 488 485
32147 2 386 488 486
32148 3 386 488 487
32149 3 386 488 489
32150 4 386 488 490
32151 1 386 488 405
32152 3 386 488 407
32153 3 386 488 409
32154 1 387 488 390
32155 2 387 488 307
32156 1 387 488 485
32157 3 387 488 486
32158 2 387 488 487
32159 1 387 488 489
32160 3 387 488 490
32161 3 387 488 405
32162 4 387 488 407
32163 3 387 488 409
32164 1 390 488 307
32165 3 390 488 485
32166 4 390 488 486
32167 3 390 488 487
32168 1 390 488 489
32169 2 390 488 490
32170 3 390 488 405
32171 3 390 488 407
32172 1 390 488 409
32173 3 307 488 485
32174 3 307 488 486
32175 4 307 488 487
32176 3 307 488 489
32177 3 307 488 490
32178 1 307 488 405
32179 2 307 488 407
32180 1 307 488 409
32181 1 485 488 486
32182 1 485 488 487
32183 2 485 488 489
32184 3 485 488 490
32185 2 485 488 405
32186 3 485 488 407
32187 4 485 488 409
32188 1 486 488 487
32189 3 486 488 489
32190 2 486 488 490
32191 1 486 488 405
32192 1 486 488 407
32193 3 486 488 409
32194 1 487 488 489
32195 1 487 488 490
32196 3 487 488 405
32197 2 487 488 407
32198 3 487 488 409
32199 1 489 488 490
32200 4 489 488 405
32201 3 489 488 407
32202 2 489 488 409
32203 3 490 488 405
32204 1 490 488 407
32205 1 490 488 409
32206 1 405 488 407
32207 2 405 488 409
32208 1 407 488 409
32209 1 370 489 387
32210 2 370 489 390
32211 1 370 489 391
32212 1 370 489 468
32213 2 370 489 470
32214 1 370 489 472
32215 3 370 489 487
32216 3 370 489 488
32217 4 370 489 490
32218 3 370 489 491
32219 3 370 489 492
32220 1 387 489 390
32221 2 387 489 391
32222 1 387 489 468
32223 3 387 489 470
32224 3 387 489 472
32225 2 387 489 487
32226 1 387 489 488
32227 3 387 489 490
32228 4 387 489 491
32229 3 387 489 492
32230 1 390 489 391
32231 3 390 489 468
32232 4 390 489 470
32233 3 390 489 472
32234 3 390 489 487
32235 1 390 489 488
32236 2 390 489 490
32237 3 390 489 491
32238 1 390 489 492
32239 3 391 489 468
32240 3 391 489 470
32241 1 391 489 472
32242 4 391 489 487
32243 3 391 489 488
32244 3 391 489 490
32245 2 391 489 491
32246 1 391 489 492
32247 1 468 489 470
32248 2 468 489 472
32249 1 468 489 487
32250 2 468 489 488
32251 3 468 489 490
32252 3 468 489 491
32253 4 468 489 492
32254 1 470 489 472
32255 1 470 489 487
32256 3 470 489 488
32257 2 470 489 490
32258 1 470 489 491
32259 3 470 489 492
32260 3 472 489 487
32261 4 472 489 488
32262 3 472 489 490
32263 1 472 489 491
32264 2 472 489 492
32265 1 487 489 488
32266 1 487 489 490
32267 2 487 489 491
32268 3 487 489 492
32269 1 488 489 490
32270 3 488 489 491
32271 2 488 489 492
32272 1 490 489 491
32273 1 490 489 492
32274 1 491 489 492
32275 1 487 490 488
32276 1 487 490 489
32277 2 487 490 491
32278 3 487 490 492
32279 2 487 490 407
32280 3 487 490 409
32281 4 487 490 411
32282 1 487 490 88
32283 1 487 490 89
32284 3 487 490 92
32285 3 487 490 9
32286 1 488 490 489
32287 3 488 490 491
32288 2 488 490 492
32289 1 488 490 407
32290 1 488 490 409
32291 3 488 490 411
32292 2 488 490 88
32293 3 488 490 89
32294 4 488 490 92
32295 3 488 490 9
32296 1 489 490 491
32297 1 489 490 492
32298 3 489 490 407
32299 2 489 490 409
32300 3 489 490 411
32301 3 489 490 88
32302 2 489 490 89
32303 3 489 490 92
32304 4 489 490 9
32305 1 491 490 492
32306 4 491 490 407
32307 3 491 490 409
32308 2 491 490 411
32309 3 491 490 88
32310 1 491 490 89
32311 1 491 490 92
32312 3 491 490 9
32313 3 492 490 407
32314 1 492 490 409
32315 1 492 490 411
32316 4 492 490 88
32317 3 492 490 89
32318 2 492 490 92
32319 3 492 490 9
32320 1 407 490 409
32321 2 407 490 411
32322 1 407 490 88
32323 3 407 490 89
32324 3 407 490 92
32325 1 407 490 9
32326 1 409 490 411
32327 3 409 490 88
32328 4 409 490 89
32329 3 409 490 92
32330 2 409 490 9
32331 3 411 490 88
32332 3 411 490 89
32333 1 411 490 92
32334 1 411 490 9
32335 1 88 490 89
32336 2 88 490 92
32337 1 88 490 9
32338 1 89 490 92
32339 2 89 490 9
32340 1 92 490 9
32341 1 470 491 472
32342 2 470 491 474
32343 1 470 491 489
32344 2 470 491 490
32345 3 470 491 492
32346 3 470 491 493
32347 4 470 491 494
32348 1 470 491 72
32349 1 470 491 89
32350 3 470 491 92
32351 3 470 491 93
32352 1 472 491 474
32353 1 472 491 489
32354 3 472 491 490
32355 2 472 491 492
32356 1 472 491 493
32357 3 472 491 494
32358 2 472 491 72
32359 3 472 491 89
32360 4 472 491 92
32361 3 472 491 93
32362 3 474 491 489
32363 4 474 491 490
32364 3 474 491 492
32365 1 474 491 493
32366 2 474 491 494
32367 1 474 491 72
32368 3 474 491 89
32369 3 474 491 92
32370 1 474 491 93
32371 1 489 491 490
32372 1 489 491 492
32373 2 489 491 493
32374 3 489 491 494
32375 3 489 491 72
32376 2 489 491 89
32377 3 489 491 92
32378 4 489 491 93
32379 1 490 491 492
32380 3 490 491 493
32381 2 490 491 494
32382 3 490 491 72
32383 1 490 491 89
32384 1 490 491 92
32385 3 490 491 93
32386 1 492 491 493
32387 1 492 491 494
32388 4 492 491 72
32389 3 492 491 89
32390 2 492 491 92
32391 3 492 491 93
32392 1 493 491 494
32393 3 493 491 72
32394 4 493 491 89
32395 3 493 491 92
32396 2 493 491 93
32397 3 494 491 72
32398 3 494 491 89
32399 1 494 491 92
32400 1 494 491 93
32401 1 72 491 89
32402 2 72 491 92
32403 1 72 491 93
32404 1 89 491 92
32405 2 89 491 93
32406 1 92 491 93
32407 1 390 492 391
32408 2 390 492 394
32409 1 390 492 311
32410 1 390 492 489
32411 2 390 492 490
32412 3 390 492 491
32413 3 390 492 493
32414 4 390 492 494
32415 1 390 492 409
32416 3 390 492 411
32417 3 390 492 413
32418 1 391 492 394
32419 2 391 492 311
32420 1 391 492 489
32421 3 391 492 490
32422 2 391 492 491
32423 1 391 492 493
32424 3 391 492 494
32425 3 391 492 409
32426 4 391 492 411
32427 3 391 492 413
32428 1 394 492 311
32429 3 394 492 489
32430 4 394 492 490
32431 3 394 492 491
32432 1 394 492 493
32433 2 394 492 494
32434 3 394 492 409
32435 3 394 492 411
32436 1 394 492 413
32437 3 311 492 489
32438 3 311 492 490
32439 4 311 492 491
32440 3 311 492 493
32441 3 311 492 494
32442 1 311 492 409
32443 2 311 492 411
32444 1 311 492 413
32445 1 489 492 490
32446 1 489 492 491
32447 2 489 492 493
32448 3 489 492 494
32449 2 489 492 409
32450 3 489 492 411
32451 4 489 492 413
32452 1 490 492 491
32453 3 490 492 493
32454 2 490 492 494
32455 1 490 492 409
32456 1 490 492 411
32457 3 490 492 413
32458 1 491 492 493
32459 1 491 492 494
32460 3 491 492 409
32461 2 491 492 411
32462 3 491 492 413
32463 1 493 492 494
32464 4 493 492 409
32465 3 493 492 411
32466 2 493 492 413
32467 3 494 492 409
32468 1 494 492 411
32469 1 494 492 413
32470 1 409 492 411
32471 2 409 492 413
32472 1 411 492 413
32473 1 374 493 391
32474 2 374 493 394
32475 1 374 493 395
32476 1 374 493 472
32477 2 374 493 474
32478 1 374 493 476
32479 3 374 493 491
32480 3 374 493 492
32481 4 374 493 494
32482 3 374 493 495
32483 3 374 493 496
32484 1 391 493 394
32485 2 391 493 395
32486 1 391 493 472
32487 3 391 493 474
32488 3 391 493 476
32489 2 391 493 491
32490 1 391 493 492
32491 3 391 493 494
32492 4 391 493 495
32493 3 391 493 496
32494 1 394 493 395
32495 3 394 493 472
32496 4 394 493 474
32497 3 394 493 476
32498 3 394 493 491
32499 1 394 493 492
32500 2 394 493 494
32501 3 394 493 495
32502 1 394 493 496
32503 3 395 493 472
32504 3 395 493 474
32505 1 395 493 476
32506 4 395 493 491
32507 3 395 493 492
32508 3 395 493 494
32509 2 395 493 495
32510 1 395 493 496
32511 1 472 493 474
32512 2 472 493 476
32513 1 472 493 491
32514 2 472 493 492
32515 3 472 493 494
32516 3 472 493 495
32517 4 472 493 496
32518 1 474 493 476
32519 1 474 493 491
32520 3 474 493 492
32521 2 474 493 494
32522 1 474 493 495
32523 3 474 493 496
32524 3 476 493 491
32525 4 476 493 492
32526 3 476 493 494
32527 1 476 493 495
32528 2 476 493 496
32529 1 491 493 492
32530 1 491 493 494
32531 2 491 493 495
32532 3 491 493 496
32533 1 492 493 494
32534 3 492 493 495
32535 2 492 493 496
32536 1 494 493 495
32537 1 494 493 496
32538 1 495 493 496
32539 1 491 494 492
32540 1 491 494 493
32541 2 491 494 495
32542 3 491 494 496
32543 2 491 494 411
32544 3 491 494 413
32545 4 491 494 415
32546 1 491 494 92
32547 1 491 494 93
32548 3 491 494 96
32549 3 491 494 13
32550 1 492 494 493
32551 3 492 494 495
32552 2 492 494 496
32553 1 492 494 411
32554 1 492 494 413
32555 3 492 494 415
32556 2 492 494 92
32557 3 492 494 93
32558 4 492 494 96
32559 3 492 494 13
32560 1 493 494 495
32561 1 493 494 496
32562 3 493 494 411
32563 2 493 494 413
32564 3 493 494 415
32565 3 493 494 92
32566 2 493 494 93
32567 3 493 494 96
32568 4 493 494 13
32569 1 495 494 496
32570 4 495 494 411
32571 3 495 494 413
32572 2 495 494 415
32573 3 495 494 92
32574 1 495 494 93
32575 1 495 494 96
32576 3 495 494 13
32577 3 496 494 411
32578 1 496 494 413
32579 1 496 494 415
32580 4 496 494 92
32581 3 496 494 93
32582 2 496 494 96
32583 3 496 494 13
32584 1 411 494 413
32585 2 411 494 415
32586 1 411 494 92
32587 3 411 494 93
32588 3 411 494 96
32589 1 411 494 13
32590 1 413 494 415
32591 3 413 494 92
32592 4 413 494 93
32593 3 413 494 96
32594 2 413 494 13
32595 3 415 494 92
32596 3 415 494 93
32597 1 415 494 96
32598 1 415 494 13
32599 1 92 494 93
32600 2 92 494 96
32601 1 92 494 13
32602 1 93 494 96
32603 2 93 494 13
32604 1 96 494 13
32605 1 474 495 476
32606 2 474 495 478
32607 1 474 495 493
32608 2 474 495 494
32609 3 474 495 496
32610 3 474 495 497
32611 4 474 495 498
32612 1 474 495 76
32613 1 474 495 93
32614 3 474 495 96
32615 3 474 495 97
32616 1 476 495 478
32617 1 476 495 493
32618 3 476 495 494
32619 2 476 495 496
32620 1 476 495 497
32621 3 476 495 498
32622 2 476 495 76
32623 3 476 495 93
32624 4 476 495 96
32625 3 476 495 97
32626 3 478 495 493
32627 4 478 495 494
32628 3 478 495 496
32629 1 478 495 497
32630 2 478 495 498
32631 1 478 495 76
32632 3 478 495 93
32633 3 478 495 96
32634 1 478 495 97
32635 1 493 495 494
32636 1 493 495 496
32637 2 493 495 497
32638 3 493 495 498
32639 3 493 495 76
32640 2 493 495 93
32641 3 493 495 96
32642 4 493 495 97
32643 1 494 495 496
32644 3 494 495 497
32645 2 494 495 498
32646 3 494 495 76
32647 1 494 495 93
32648 1 494 495 96
32649 3 494 495 97
32650 1 496 495 497
32651 1 496 495 498
32652 4 496 495 76
32653 3 496 495 93
32654 2 496 495 96
32655 3 496 495 97
32656 1 497 495 498
32657 3 497 495 76
32658 4 497 495 93
32659 3 497 495 96
32660 2 497 495 97
32661 3 498 495 76
32662 3 498 495 93
32663 1 498 495 96
32664 1 498 495 97
32665 1 76 495 93
32666 2 76 495 96
32667 1 76 495 97
32668 1 93 495 96
32669 2 93 495 97
32670 1 96 495 97
32671 1 394 496 395
32672 2 394 496 398
32673 1 394 496 315
32674 1 394 496 493
32675 2 394 496 494
32676 3 394 496 495
32677 3 394 496 497
32678 4 394 496 498
32679 1 394 496 413
32680 3 394 496 415
32681 3 394 496 417
32682 1 395 496 398
32683 2 395 496 315
32684 1 395 496 493
32685 3 395 496 494
32686 2 395 496 495
32687 1 395 496 497
32688 3 395 496 498
32689 3 395 496 413
32690 4 395 496 415
32691 3 395 496 417
32692 1 398 496 315
32693 3 398 496 493
32694 4 398 496 494
32695 3 398 496 495
32696 1 398 496 497
32697 2 398 496 498
32698 3 398 496 413
32699 3 398 496 415
32700 1 398 496 417
32701 3 315 496 493
32702 3 315 496 494
32703 4 315 496 495
32704 3 315 496 497
32705 3 315 496 498
32706 1 315 496 413
32707 2 315 496 415
32708 1 315 496 417
32709 1 493 496 494
32710 1 493 496 495
32711 2 493 496 497
32712 3 493 496 498
32713 2 493 496 413
32714 3 493 496 415
32715 4 493 496 417
32716 1 494 496 495
32717 3 494 496 497
32718 2 494 496 498
32719 1 494 496 413
32720 1 494 496 415
32721 3 494 496 417
32722 1 495 496 497
32723 1 495 496 498
32724 3 495 496 413
32725 2 495 496 415
32726 3 495 496 417
32727 1 497 496 498
32728 4 497 496 413
32729 3 497 496 415
32730 2 497 496 417
32731 3 498 496 413
32732 1 498 496 415
32733 1 498 496 417
32734 1 413 496 415
32735 2 413 496 417
32736 1 415 496 417
32737 1 378 497 395
32738 2 378 497 398
32739 1 378 497 399
32740 1 378 497 476
32741 2 378 497 478
32742 1 378 497 480
32743 3 378 497 495
32744 3 378 497 496
32745 4 378 497 498
32746 3 378 497 499
32747 3 378 497 500
32748 1 395 497 398
32749 2 395 497 399
32750 1 395 497 476
32751 3 395 497 478
32752 3 395 497 480
32753 2 395 497 495
32754 1 395 497 496
32755 3 395 497 498
32756 4 395 497 499
32757 3 395 497 500
32758 1 398 497 399
32759 3 398 497 476
32760 4 398 497 478
32761 3 398 497 480
32762 3 398 497 495
32763 1 398 497 496
32764 2 398 497 498
32765 3 398 497 499
32766 1 398 497 500
32767 3 399 497 476
32768 3 399 497 478
32769 1 399 497 480
32770 4 399 497 495
32771 3 399 497 496
32772 3 399 497 498
32773 2 399 497 499
32774 1 399 497 500
32775 1 476 497 478
32776 2 476 497 480
32777 1 476 497 495
32778 2 476 497 496
32779 3 476 497 498
32780 3 476 497 499
32781 4 476 497 500
32782 1 478 497 480
32783 1 478 497 495
32784 3 478 497 496
32785 2 478 497 498
32786 1 478 497 499
32787 3 478 497 500
32788 3 480 497 495
32789 4 480 497 496
32790 3 480 497 498
32791 1 480 497 499
32792 2 480 497 500
32793 1 495 497 496
32794 1 495 497 498
32795 2 495 497 499
32796 3 495 497 500
32797 1 496 497 498
32798 3 496 497 499
32799 2 496 497 500
32800 1 498 497 499
32801 1 498 497 500
32802 1 499 497 500
32803 1 495 498 496
32804 1 495 498 497
32805 2 495 498 499
32806 3 495 498 500
32807 2 495 498 415
32808 3 495 498 417
32809 4 495 498 419
32810 1 495 498 96
32811 1 495 498 97
32812 3 495 498 100
32813 3 495 498 17
32814 1 496 498 497
32815 3 496 498 499
32816 2 496 498 500
32817 1 496 498 415
32818 1 496 498 417
32819 3 496 498 419
32820 2 496 498 96
32821 3 496 498 97
32822 4 496 498 100
32823 3 496 498 17
32824 1 497 498 499
32825 1 497 498 500
32826 3 497 498 415
32827 2 497 498 417
32828 3 497 498 419
32829 3 497 498 96
32830 2 497 498 97
32831 3 497 498 100
32832 4 497 498 17
32833 1 499 498 500
32834 4 499 498 415
32835 3 499 498 417
32836 2 499 498 419
32837 3 499 498 96
32838 1 499 498 97
32839 1 499 498 100
32840 3 499 498 17
32841 3 500 498 415
32842 1 500 498 417
32843 1 500 498 419
32844 4 500 498 96
32845 3 500 498 97
32846 2 500 498 100
32847 3 500 498 17
32848 1 415 498 417
32849 2 415 498 419
32850 1 415 498 96
32851 3 415 498 97
32852 3 415 498 100
32853 1 415 498 17
32854 1 417 498 419
32855 3 417 498 96
32856 4 417 498 97
32857 3 417 498 100
32858 2 417 498 17
32859 3 419 498 96
32860 3 419 498 97
32861 1 419 498 100
32862 1 419 498 17
32863 1 96 498 97
32864 2 96 498 100
32865 1 96 498 17
32866 1 97 498 100
32867 2 97 498 17
32868 1 100 498 17
32869 1 478 499 480
32870 2 478 499 462
32871 1 478 499 497
32872 2 478 499 498
32873 3 478 499 500
32874 3 478 499 481
32875 4 478 499 482
32876 1 478 499 80
32877 1 478 499 97
32878 3 478 499 100
32879 3 478 499 81
32880 1 480 499 462
32881 1 480 499 497
32882 3 480 499 498
32883 2 480 499 500
32884 1 480 499 481
32885 3 480 499 482
32886 2 480 499 80
32887 3 480 499 97
32888 4 480 499 100
32889 3 480 499 81
32890 3 462 499 497
32891 4 462 499 498
32892 3 462 499 500
32893 1 462 499 481
32894 2 462 499 482
32895 1 462 499 80
32896 3 462 499 97
32897 3 462 499 100
32898 1 462 499 81
32899 1 497 499 498
32900 1 497 499 500
32901 2 497 499 481
32902 3 497 499 482
32903 3 497 499 80
32904 2 497 499 97
32905 3 497 499 100
32906 4 497 499 81
32907 1 498 499 500
32908 3 498 499 481
32909 2 498 499 482
32910 3 498 499 80
32911 1 498 499 97
32912 1 498 499 100
32913 3 498 499 81
32914 1 500 499 481
32915 1 500 499 482
32916 4 500 499 80
32917 3 500 499 97
32918 2 500 499 100
32919 3 500 499 81
32920 1 481 499 482
32921 3 481 499 80
32922 4 481 499 97
32923 3 481 499 100
32924 2 481 499 81
32925 3 482 499 80
32926 3 482 499 97
32927 1 482 499 100
32928 1 482 499 81
32929 1 80 499 97
32930 2 80 499 100
32931 1 80 499 81
32932 1 97 499 100
32933 2 97 499 81
32934 1 100 499 81
32935 1 398 500 399
32936 2 398 500 382
32937 1 398 500 319
32938 1 398 500 497
32939 2 398 500 498
32940 3 398 500 499
32941 3 398 500 481
32942 4 398 500 482
32943 1 398 500 417
32944 3 398 500 419
32945 3 398 500 401
32946 1 399 500 382
32947 2 399 500 319
32948 1 399 500 497
32949 3 399 500 498
32950 2 399 500 499
32951 1 399 500 481
32952 3 399 500 482
32953 3 399 500 417
32954 4 399 500 419
32955 3 399 500 401
32956 1 382 500 319
32957 3 382 500 497
32958 4 382 500 498
32959 3 382 500 499
32960 1 382 500 481
32961 2 382 500 482
32962 3 382 500 417
32963 3 382 500 419
32964 1 382 500 401
32965 3 319 500 497
32966 3 319 500 498
32967 4 319 500 499
32968 3 319 500 481
32969 3 319 500 482
32970 1 319 500 417
32971 2 319 500 419
32972 1 319 500 401
32973 1 497 500 498
32974 1 497 500 499
32975 2 497 500 481
32976 3 497 500 482
32977 2 497 500 417
32978 3 497 500 419
32979 4 497 500 401
32980 1 498 500 499
32981 3 498 500 481
32982 2 498 500 482
32983 1 498 500 417
32984 1 498 500 419
32985 3 498 500 401
32986 1 499 500 481
32987 1 499 500 482
32988 3 499 500 417
32989 2 499 500 419
32990 3 499 500 401
32991 1 481 500 482
32992 4 481 500 417
32993 3 481 500 419
32994 2 481 500 401
32995 3 482 500 417
32996 1 482 500 419
32997 1 482 500 401
32998 1 417 500 419
32999 2 417 500 401
33000 1 419 500 401
